     Program PWSCF v.5.3.0 (svn rev. 11974) starts on 31Aug2016 at 17:33:13

     Current dimensions of program PWSCF are:
     Max number of different atomic species (ntypx) = 10
     Max number of k-points (npk) =  40000
     Max angular momentum in pseudopotentials (lmaxx) =  3

     IMPORTANT: XC functional enforced from input :
     Exchange-correlation      = VDW-DF ( 1  4  4  0 1 0)
     Any further DFT definition will be discarded
     Please, verify this is what you really want

     Title:
     bridge.O1.Au6165.d.2.7.phi.0.psi.90

     bravais-lattice index     =            8
     lattice parameter (alat)  =      24.1233  a.u.
     unit-cell volume          =   28076.2361 (a.u.)^3
     number of atoms/cell      =           75
     number of atomic types    =            3
     number of electrons       =       800.00
     number of Kohn-Sham states=          480
     kinetic-energy cutoff     =      50.0000  Ry
     charge density cutoff     =     400.0000  Ry
     convergence threshold     =      1.0E-08
     mixing beta               =       0.7000
     number of iterations used =            8  plain     mixing
     Exchange-correlation      = VDW-DF ( 1  4  4  0 1 0)
     nstep                     =           50

     celldm(1)=  24.123277  celldm(2)=   1.000000  celldm(3)=   2.000000
     celldm(4)=   0.000000  celldm(5)=   0.000000  celldm(6)=   0.000000

     crystal axes: (cart. coord. in units of alat)
               a(1) = (   1.000000   0.000000   0.000000 )
               a(2) = (   0.000000   1.000000   0.000000 )
               a(3) = (   0.000000   0.000000   2.000000 )

     reciprocal axes: (cart. coord. in units 2 pi/alat)
               b(1) = (  1.000000  0.000000  0.000000 )
               b(2) = (  0.000000  1.000000  0.000000 )
               b(3) = (  0.000000  0.000000  0.500000 )

     PseudoPot. # 1 for Au read from file:
     ../../../../pseudo/Au.pbe-nd-van.UPF
     MD5 check sum: 458681b50f36d87ef23c61b04bba420a
     Pseudo is Ultrasoft + core correction, Zval = 11.0
     Generated by new atomic code, or converted to UPF format
     Using radial grid of  985 points,  3 beta functions with:
                l(1) =   1
                l(2) =   2
                l(3) =   2
     Q(r) pseudized with  8 coefficients,  rinner =    1.100   1.100   1.100
                                                       1.100   1.100

     PseudoPot. # 2 for H  read from file:
     ../../../../pseudo/H.pbe-van_ak.UPF
     MD5 check sum: 403db7282739603aa925980fa9b8608d
     Pseudo is Ultrasoft, Zval =  1.0
     Generated by new atomic code, or converted to UPF format
     Using radial grid of  615 points,  1 beta functions with:
                l(1) =   0
     Q(r) pseudized with  8 coefficients,  rinner =    0.800

     PseudoPot. # 3 for O  read from file:
     ../../../../pseudo/O.pbe-van_ak.UPF
     MD5 check sum: 4b8c549914a63cae506c6ff22b5af4fe
     Pseudo is Ultrasoft, Zval =  6.0
     Generated by new atomic code, or converted to UPF format
     Using radial grid of  737 points,  4 beta functions with:
                l(1) =   0
                l(2) =   0
                l(3) =   1
                l(4) =   1
     Q(r) pseudized with  8 coefficients,  rinner =    0.800   0.800   0.800

     vdW kernel table read from file vdW_kernel_table
     MD5 check sum: 48e77a2e26edf626eeb0eaa751ad5cac

     atomic species   valence    mass     pseudopotential
        Au            11.00   196.96657     Au( 1.00)
        H              1.00     1.01000     H ( 1.00)
        O              6.00    16.00000     O ( 1.00)

     No symmetry found

   Cartesian axes

     site n.     atom                  positions (alat units)
         1           O   tau(   1) = ( 0.281967069    0.439386073    0.739382222 )
         2           H   tau(   2) = ( 0.208346385    0.419129164    0.743654522 )
         3           H   tau(   3) = ( 0.320326905    0.377969637    0.763901913 )
         4           Au  tau(   4) = ( 0.000000000    0.000000000    0.000000000 )
         5           Au  tau(   5) = ( 0.333221371    0.000000000    0.000000000 )
         6           Au  tau(   6) = ( 0.666442743    0.000000000    0.000000000 )
         7           Au  tau(   7) = ( 0.166610686    0.166610686    0.000000000 )
         8           Au  tau(   8) = ( 0.499832076    0.166610686    0.000000000 )
         9           Au  tau(   9) = ( 0.833053372    0.166610686    0.000000000 )
        10           Au  tau(  10) = ( 0.000000000    0.333221371    0.000000000 )
        11           Au  tau(  11) = ( 0.333221371    0.333221371    0.000000000 )
        12           Au  tau(  12) = ( 0.666442743    0.333221371    0.000000000 )
        13           Au  tau(  13) = ( 0.166610686    0.499832076    0.000000000 )
        14           Au  tau(  14) = ( 0.499832076    0.499832076    0.000000000 )
        15           Au  tau(  15) = ( 0.833053372    0.499832076    0.000000000 )
        16           Au  tau(  16) = ( 0.000000000    0.666442743    0.000000000 )
        17           Au  tau(  17) = ( 0.333221371    0.666442743    0.000000000 )
        18           Au  tau(  18) = ( 0.666442743    0.666442743    0.000000000 )
        19           Au  tau(  19) = ( 0.166610686    0.833053372    0.000000000 )
        20           Au  tau(  20) = ( 0.499832076    0.833053372    0.000000000 )
        21           Au  tau(  21) = ( 0.833053372    0.833053372    0.000000000 )
        22           Au  tau(  22) = ( 0.166610686    0.000000000    0.166610686 )
        23           Au  tau(  23) = ( 0.499832076    0.000000000    0.166610686 )
        24           Au  tau(  24) = ( 0.833053372    0.000000000    0.166610686 )
        25           Au  tau(  25) = ( 0.000000000    0.166610686    0.166610686 )
        26           Au  tau(  26) = ( 0.333221371    0.166610686    0.166610686 )
        27           Au  tau(  27) = ( 0.666442743    0.166610686    0.166610686 )
        28           Au  tau(  28) = ( 0.166610686    0.333221371    0.166610686 )
        29           Au  tau(  29) = ( 0.499832076    0.333221371    0.166610686 )
        30           Au  tau(  30) = ( 0.833053372    0.333221371    0.166610686 )
        31           Au  tau(  31) = ( 0.000000000    0.499832076    0.166610686 )
        32           Au  tau(  32) = ( 0.333221371    0.499832076    0.166610686 )
        33           Au  tau(  33) = ( 0.666442743    0.499832076    0.166610686 )
        34           Au  tau(  34) = ( 0.166610686    0.666442743    0.166610686 )
        35           Au  tau(  35) = ( 0.499832076    0.666442743    0.166610686 )
        36           Au  tau(  36) = ( 0.833053372    0.666442743    0.166610686 )
        37           Au  tau(  37) = ( 0.000000000    0.833053372    0.166610686 )
        38           Au  tau(  38) = ( 0.333221371    0.833053372    0.166610686 )
        39           Au  tau(  39) = ( 0.666442743    0.833053372    0.166610686 )
        40           Au  tau(  40) = ( -0.000018166    -0.000018166    0.333547431 )
        41           Au  tau(  41) = ( 0.333221110    -0.000018053    0.333546908 )
        42           Au  tau(  42) = ( 0.666444013    -0.000018291    0.333547767 )
        43           Au  tau(  43) = ( -0.000018053    0.333221110    0.333546908 )
        44           Au  tau(  44) = ( 0.333221147    0.333221147    0.333546460 )
        45           Au  tau(  45) = ( 0.666443789    0.333221185    0.333547393 )
        46           Au  tau(  46) = ( -0.000018291    0.666444013    0.333547767 )
        47           Au  tau(  47) = ( 0.333221185    0.666443789    0.333547393 )
        48           Au  tau(  48) = ( 0.666443938    0.666443938    0.333548215 )
        49           Au  tau(  49) = ( 0.166609528    0.166609528    0.333547954 )
        50           Au  tau(  50) = ( 0.499831515    0.166609602    0.333547356 )
        51           Au  tau(  51) = ( 0.833072348    0.166609378    0.333547692 )
        52           Au  tau(  52) = ( 0.166609602    0.499831515    0.333547356 )
        53           Au  tau(  53) = ( 0.499831627    0.499831627    0.333546684 )
        54           Au  tau(  54) = ( 0.833072199    0.499831665    0.333547057 )
        55           Au  tau(  55) = ( 0.166609378    0.833072348    0.333547692 )
        56           Au  tau(  56) = ( 0.499831665    0.833072199    0.333547057 )
        57           Au  tau(  57) = ( 0.833072273    0.833072273    0.333547468 )
        58           Au  tau(  58) = ( 0.166610219    -0.000011094    0.499309014 )
        59           Au  tau(  59) = ( 0.499831814    -0.000011156    0.499309350 )
        60           Au  tau(  60) = ( 0.833065176    -0.000011143    0.499300422 )
        61           Au  tau(  61) = ( -0.000011094    0.166610219    0.499309014 )
        62           Au  tau(  62) = ( 0.333220998    0.166610424    0.499317978 )
        63           Au  tau(  63) = ( 0.666443042    0.166610424    0.499318203 )
        64           Au  tau(  64) = ( 0.166610424    0.333220998    0.499317978 )
        65           Au  tau(  65) = ( 0.499831889    0.333221222    0.499318016 )
        66           Au  tau(  66) = ( 0.833064952    0.333221110    0.499309723 )
        67           Au  tau(  67) = ( -0.000011156    0.499831814    0.499309350 )
        68           Au  tau(  68) = ( 0.333221222    0.499831889    0.499318016 )
        69           Au  tau(  69) = ( 0.666442967    0.499831964    0.499318203 )
        70           Au  tau(  70) = ( 0.166610424    0.666443042    0.499318203 )
        71           Au  tau(  71) = ( 0.499831964    0.666442967    0.499318203 )
        72           Au  tau(  72) = ( 0.833064952    0.666443116    0.499309686 )
        73           Au  tau(  73) = ( -0.000011143    0.833065176    0.499300422 )
        74           Au  tau(  74) = ( 0.333221110    0.833064952    0.499309723 )
        75           Au  tau(  75) = ( 0.666443116    0.833064952    0.499309686 )

     number of k points=     6  Marzari-Vanderbilt smearing, width (Ry)=  0.0200
                       cart. coord. in units 2pi/alat
        k(    1) = (   0.2500000   0.2500000   0.0833333), wk =   0.3333333
        k(    2) = (   0.2500000   0.2500000  -0.2500000), wk =   0.3333333
        k(    3) = (  -0.2500000  -0.2500000   0.0833333), wk =   0.3333333
        k(    4) = (  -0.2500000   0.2500000  -0.0833333), wk =   0.3333333
        k(    5) = (   0.2500000  -0.2500000  -0.0833333), wk =   0.3333333
        k(    6) = (  -0.2500000   0.2500000   0.2500000), wk =   0.3333333

     Largest allocated arrays     est. size (Mb)     dimensions
     Largest temporary arrays     est. size (Mb)     dimensions

     Initial potential from superposition of free atoms
     Check: negative starting charge=   -1.945178

     starting charge  799.16392, renormalised to  800.00000

     negative rho (up, down):  1.947E+00 0.000E+00

     %%%%%%%%%%%%%%%%%%%%%%%%%%%%%%%%%%%%%%%%%%%%%%%%%%%%%%%%%%%%%%%%%%%%%%%%
     %                                                                      %
     % You are using vdW-DF, which was implemented by the Thonhauser group. %
     % Please cite the following two papers that made this development      %
     % possible and the two reviews that describe the various versions:     %
     %                                                                      %
     %   T. Thonhauser et al., PRL 115, 136402 (2015).                      %
     %   T. Thonhauser et al., PRB 76, 125112 (2007).                       %
     %   K. Berland et al., Rep. Prog. Phys. 78, 066501 (2015).             %
     %   D.C. Langreth et al., J. Phys.: Condens. Matter 21, 084203 (2009). %
     %                                                                      %
     %                                                                      %
     % If you are calculating the stress with vdW-DF, please also cite:     %
     %                                                                      %
     %   R. Sabatini et al., J. Phys.: Condens. Matter 24, 424209 (2012).   %
     %                                                                      %
     %%%%%%%%%%%%%%%%%%%%%%%%%%%%%%%%%%%%%%%%%%%%%%%%%%%%%%%%%%%%%%%%%%%%%%%%

!    total energy              =   -7425.29678902 Ry
     Harris-Foulkes estimate   =   -7425.29678902 Ry
     estimated scf accuracy    <          1.9E-11 Ry

     The total energy is the sum of the following terms:

     one-electron contribution =  -48722.55066809 Ry
     hartree contribution      =   24913.19690852 Ry
     xc contribution           =   -3604.20427729 Ry
     ewald contribution        =   19988.26405222 Ry
     smearing contrib. (-TS)   =      -0.00280437 Ry

     convergence has been achieved in  16 iterations

     negative rho (up, down):  1.973E+00 0.000E+00

     Forces acting on atoms (Ry/au):

     atom    1 type  3   force =    -0.00028981    0.00003224    0.00023509
     atom    2 type  2   force =     0.00078760    0.00060638   -0.00050200
     atom    3 type  2   force =     0.00000604    0.00035829   -0.00099079
     atom    4 type  1   force =    -0.00033794   -0.00027741    0.00208318
     atom    5 type  1   force =    -0.00001566   -0.00024411    0.00212540
     atom    6 type  1   force =     0.00002154   -0.00026177    0.00185780
     atom    7 type  1   force =     0.00007416   -0.00002020    0.00172991
     atom    8 type  1   force =    -0.00004199    0.00000723    0.00177015
     atom    9 type  1   force =     0.00026488   -0.00008817    0.00188701
     atom   10 type  1   force =    -0.00028135    0.00007417    0.00190959
     atom   11 type  1   force =    -0.00000168   -0.00004529    0.00163800
     atom   12 type  1   force =    -0.00001093    0.00004364    0.00169843
     atom   13 type  1   force =    -0.00004694   -0.00000446    0.00163739
     atom   14 type  1   force =     0.00005824   -0.00003744    0.00157702
     atom   15 type  1   force =     0.00027987    0.00000538    0.00214293
     atom   16 type  1   force =    -0.00027956   -0.00002622    0.00197879
     atom   17 type  1   force =    -0.00003269    0.00005750    0.00156003
     atom   18 type  1   force =     0.00001971    0.00001026    0.00173376
     atom   19 type  1   force =     0.00001978    0.00026558    0.00191638
     atom   20 type  1   force =     0.00001998    0.00027606    0.00193934
     atom   21 type  1   force =     0.00028753    0.00027048    0.00206436
     atom   22 type  1   force =    -0.00018764   -0.00040628   -0.00119470
     atom   23 type  1   force =     0.00010385   -0.00046204   -0.00120849
     atom   24 type  1   force =     0.00041386   -0.00042847   -0.00097074
     atom   25 type  1   force =    -0.00045808   -0.00004739   -0.00108250
     atom   26 type  1   force =     0.00002165    0.00019222   -0.00108078
     atom   27 type  1   force =     0.00011506   -0.00004134   -0.00110140
     atom   28 type  1   force =     0.00002235    0.00008032   -0.00115079
     atom   29 type  1   force =    -0.00001959    0.00009940   -0.00116555
     atom   30 type  1   force =     0.00049785   -0.00015837   -0.00118953
     atom   31 type  1   force =    -0.00016628    0.00001499   -0.00106358
     atom   32 type  1   force =     0.00001713    0.00003393   -0.00139258
     atom   33 type  1   force =    -0.00040344    0.00002789   -0.00105938
     atom   34 type  1   force =     0.00007016   -0.00000724   -0.00120674
     atom   35 type  1   force =    -0.00013026   -0.00005267   -0.00120363
     atom   36 type  1   force =     0.00041525    0.00015077   -0.00122396
     atom   37 type  1   force =    -0.00042872    0.00051209   -0.00113595
     atom   38 type  1   force =     0.00002742   -0.00002732   -0.00107472
     atom   39 type  1   force =     0.00007528    0.00048505   -0.00111584
     atom   40 type  1   force =    -0.00035625   -0.00046058   -0.00006531
     atom   41 type  1   force =     0.00002571   -0.00050954   -0.00006913
     atom   42 type  1   force =     0.00003420   -0.00042651   -0.00004114
     atom   43 type  1   force =    -0.00046098    0.00007874   -0.00023135
     atom   44 type  1   force =    -0.00000256    0.00037380    0.00018621
     atom   45 type  1   force =     0.00022601    0.00002959   -0.00016119
     atom   46 type  1   force =    -0.00047776    0.00004139   -0.00011436
     atom   47 type  1   force =    -0.00008365   -0.00058625    0.00075828
     atom   48 type  1   force =     0.00018728    0.00001649    0.00000061
     atom   49 type  1   force =     0.00008235   -0.00011729   -0.00018271
     atom   50 type  1   force =    -0.00002634   -0.00013788   -0.00020290
     atom   51 type  1   force =     0.00031709   -0.00001147   -0.00005680
     atom   52 type  1   force =     0.00040720    0.00002154    0.00032777
     atom   53 type  1   force =    -0.00060323   -0.00004992    0.00063774
     atom   54 type  1   force =     0.00027750    0.00006354   -0.00004510
     atom   55 type  1   force =    -0.00002500    0.00050532   -0.00004300
     atom   56 type  1   force =    -0.00002162    0.00051961   -0.00002590
     atom   57 type  1   force =     0.00035517    0.00036431   -0.00007392
     atom   58 type  1   force =    -0.00001124   -0.00017546   -0.00057774
     atom   59 type  1   force =     0.00001873   -0.00021343   -0.00058536
     atom   60 type  1   force =     0.00029699   -0.00016746   -0.00094235
     atom   61 type  1   force =    -0.00019019    0.00004657   -0.00034344
     atom   62 type  1   force =    -0.00004945    0.00004743   -0.00024820
     atom   63 type  1   force =     0.00001884   -0.00004337   -0.00040065
     atom   64 type  1   force =    -0.00149147   -0.00130094   -0.00194408
     atom   65 type  1   force =     0.00050382   -0.00037872   -0.00075925
     atom   66 type  1   force =     0.00027066   -0.00001778   -0.00053402
     atom   67 type  1   force =    -0.00002852   -0.00020134   -0.00031748
     atom   68 type  1   force =     0.00056418    0.00054533   -0.00040530
     atom   69 type  1   force =    -0.00003616   -0.00006817   -0.00048280
     atom   70 type  1   force =    -0.00030915    0.00032561   -0.00078205
     atom   71 type  1   force =     0.00015055    0.00012617   -0.00063690
     atom   72 type  1   force =     0.00026085    0.00000389   -0.00065937
     atom   73 type  1   force =    -0.00027964    0.00028120   -0.00086074
     atom   74 type  1   force =    -0.00002649    0.00025615   -0.00074279
     atom   75 type  1   force =    -0.00000403    0.00025174   -0.00074615

     Total force =     0.001578     Total SCF correction =     0.000002

     bfgs converged in  43 scf cycles and  41 bfgs steps
     (criteria: energy <  1.0E-04, force <  1.0E-03)

     End of BFGS Geometry Optimization

     Final energy   =   -7425.2967890194 Ry
Begin final coordinates

ATOMIC_POSITIONS (angstrom)
O        3.599451048   5.608983584   9.438584888
H        2.659646096   5.350393979   9.493122943
H        4.089133590   4.824971980   9.751591034
Au       0.000000000   0.000000000   0.000000000    0   0   0
Au       4.253737926   0.000000000   0.000000000    0   0   0
Au       8.507475853   0.000000000   0.000000000    0   0   0
Au       2.126868963   2.126868963   0.000000000    0   0   0
Au       6.380607128   2.126868963   0.000000000    0   0   0
Au      10.634344101   2.126868963   0.000000000    0   0   0
Au       0.000000000   4.253737926   0.000000000    0   0   0
Au       4.253737926   4.253737926   0.000000000    0   0   0
Au       8.507475853   4.253737926   0.000000000    0   0   0
Au       2.126868963   6.380607128   0.000000000    0   0   0
Au       6.380607128   6.380607128   0.000000000    0   0   0
Au      10.634344101   6.380607128   0.000000000    0   0   0
Au       0.000000000   8.507475853   0.000000000    0   0   0
Au       4.253737926   8.507475853   0.000000000    0   0   0
Au       8.507475853   8.507475853   0.000000000    0   0   0
Au       2.126868963  10.634344101   0.000000000    0   0   0
Au       6.380607128  10.634344101   0.000000000    0   0   0
Au      10.634344101  10.634344101   0.000000000    0   0   0
Au       2.126868963   0.000000000   2.126868963    0   0   0
Au       6.380607128   0.000000000   2.126868963    0   0   0
Au      10.634344101   0.000000000   2.126868963    0   0   0
Au       0.000000000   2.126868963   2.126868963    0   0   0
Au       4.253737926   2.126868963   2.126868963    0   0   0
Au       8.507475853   2.126868963   2.126868963    0   0   0
Au       2.126868963   4.253737926   2.126868963    0   0   0
Au       6.380607128   4.253737926   2.126868963    0   0   0
Au      10.634344101   4.253737926   2.126868963    0   0   0
Au       0.000000000   6.380607128   2.126868963    0   0   0
Au       4.253737926   6.380607128   2.126868963    0   0   0
Au       8.507475853   6.380607128   2.126868963    0   0   0
Au       2.126868963   8.507475853   2.126868963    0   0   0
Au       6.380607128   8.507475853   2.126868963    0   0   0
Au      10.634344101   8.507475853   2.126868963    0   0   0
Au       0.000000000  10.634344101   2.126868963    0   0   0
Au       4.253737926  10.634344101   2.126868963    0   0   0
Au       8.507475853  10.634344101   2.126868963    0   0   0
Au      -0.000231899  -0.000231899   4.257900238    0   0   0
Au       4.253734589  -0.000230451   4.257893562    0   0   0
Au       8.507492065  -0.000233495   4.257904530    0   0   0
Au      -0.000230451   4.253734589   4.257893562    0   0   0
Au       4.253735065   4.253735065   4.257887840    0   0   0
Au       8.507489204   4.253735542   4.257899761    0   0   0
Au      -0.000233495   8.507492065   4.257904530    0   0   0
Au       4.253735542   8.507489204   4.257899761    0   0   0
Au       8.507491112   8.507491112   4.257910252    0   0   0
Au       2.126854181   2.126854181   4.257906914    0   0   0
Au       6.380599976   2.126855135   4.257899284    0   0   0
Au      10.634586334   2.126852274   4.257903576    0   0   0
Au       2.126855135   6.380599976   4.257899284    0   0   0
Au       6.380601406   6.380601406   4.257890701    0   0   0
Au      10.634584427   6.380601883   4.257895470    0   0   0
Au       2.126852274  10.634586334   4.257903576    0   0   0
Au       6.380601883  10.634584427   4.257895470    0   0   0
Au      10.634585381  10.634585381   4.257900715    0   0   0
Au       2.126863003  -0.000141616   6.373929977    0   0   0
Au       6.380603790  -0.000142418   6.373934269    0   0   0
Au      10.634494781  -0.000142245   6.373820305    0   0   0
Au      -0.000141616   2.126863003   6.373929977    0   0   0
Au       4.253733158   2.126865625   6.374044418    0   0   0
Au       8.507479668   2.126865625   6.374047279    0   0   0
Au       2.126865625   4.253733158   6.374044418    0   0   0
Au       6.380604744   4.253736019   6.374044895    0   0   0
Au      10.634491920   4.253734589   6.373939037    0   0   0
Au      -0.000142418   6.380603790   6.373934269    0   0   0
Au       4.253736019   6.380604744   6.374044895    0   0   0
Au       8.507478714   6.380605698   6.374047279    0   0   0
Au       2.126865625   8.507479668   6.374047279    0   0   0
Au       6.380605698   8.507478714   6.374047279    0   0   0
Au      10.634491920   8.507480621   6.373938560    0   0   0
Au      -0.000142245  10.634494781   6.373820305    0   0   0
Au       4.253734589  10.634491920   6.373939037    0   0   0
Au       8.507480621  10.634491920   6.373938560    0   0   0
End final coordinates

     Writing output data file 0917.save

     General routines

     Parallel routines

   This run was terminated on:  20: 7: 6   1Sep2016

   JOB DONE.