     Program PWSCF v.5.3.0 (svn rev. 11974) starts on 31Aug2016 at 17:18: 1

     Current dimensions of program PWSCF are:
     Max number of different atomic species (ntypx) = 10
     Max number of k-points (npk) =  40000
     Max angular momentum in pseudopotentials (lmaxx) =  3

     IMPORTANT: XC functional enforced from input :
     Exchange-correlation      = VDW-DF ( 1  4  4  0 1 0)
     Any further DFT definition will be discarded
     Please, verify this is what you really want

     Title:
     hollow.O1.Au5859.d.2.7.phi.0.psi.0

     bravais-lattice index     =            8
     lattice parameter (alat)  =      24.1233  a.u.
     unit-cell volume          =   28076.2361 (a.u.)^3
     number of atoms/cell      =           75
     number of atomic types    =            3
     number of electrons       =       800.00
     number of Kohn-Sham states=          480
     kinetic-energy cutoff     =      50.0000  Ry
     charge density cutoff     =     400.0000  Ry
     convergence threshold     =      1.0E-08
     mixing beta               =       0.7000
     number of iterations used =            8  plain     mixing
     Exchange-correlation      = VDW-DF ( 1  4  4  0 1 0)
     nstep                     =           50

     celldm(1)=  24.123277  celldm(2)=   1.000000  celldm(3)=   2.000000
     celldm(4)=   0.000000  celldm(5)=   0.000000  celldm(6)=   0.000000

     crystal axes: (cart. coord. in units of alat)
               a(1) = (   1.000000   0.000000   0.000000 )
               a(2) = (   0.000000   1.000000   0.000000 )
               a(3) = (   0.000000   0.000000   2.000000 )

     reciprocal axes: (cart. coord. in units 2 pi/alat)
               b(1) = (  1.000000  0.000000  0.000000 )
               b(2) = (  0.000000  1.000000  0.000000 )
               b(3) = (  0.000000  0.000000  0.500000 )

     PseudoPot. # 1 for Au read from file:
     ../../../../pseudo/Au.pbe-nd-van.UPF
     MD5 check sum: 458681b50f36d87ef23c61b04bba420a
     Pseudo is Ultrasoft + core correction, Zval = 11.0
     Generated by new atomic code, or converted to UPF format
     Using radial grid of  985 points,  3 beta functions with:
                l(1) =   1
                l(2) =   2
                l(3) =   2
     Q(r) pseudized with  8 coefficients,  rinner =    1.100   1.100   1.100
                                                       1.100   1.100

     PseudoPot. # 2 for H  read from file:
     ../../../../pseudo/H.pbe-van_ak.UPF
     MD5 check sum: 403db7282739603aa925980fa9b8608d
     Pseudo is Ultrasoft, Zval =  1.0
     Generated by new atomic code, or converted to UPF format
     Using radial grid of  615 points,  1 beta functions with:
                l(1) =   0
     Q(r) pseudized with  8 coefficients,  rinner =    0.800

     PseudoPot. # 3 for O  read from file:
     ../../../../pseudo/O.pbe-van_ak.UPF
     MD5 check sum: 4b8c549914a63cae506c6ff22b5af4fe
     Pseudo is Ultrasoft, Zval =  6.0
     Generated by new atomic code, or converted to UPF format
     Using radial grid of  737 points,  4 beta functions with:
                l(1) =   0
                l(2) =   0
                l(3) =   1
                l(4) =   1
     Q(r) pseudized with  8 coefficients,  rinner =    0.800   0.800   0.800

     vdW kernel table read from file vdW_kernel_table
     MD5 check sum: 48e77a2e26edf626eeb0eaa751ad5cac

     atomic species   valence    mass     pseudopotential
        Au            11.00   196.96657     Au( 1.00)
        H              1.00     1.01000     H ( 1.00)
        O              6.00    16.00000     O ( 1.00)

     No symmetry found

   Cartesian axes

     site n.     atom                  positions (alat units)
         1           O   tau(   1) = (  0.167498151   0.166973366   0.736910307 )
         2           H   tau(   2) = (  0.119993206   0.127551533   0.781902174 )
         3           H   tau(   3) = (  0.212955766   0.205058002   0.785050764 )
         4           Au  tau(   4) = (  0.000000000   0.000000000   0.000000000 )
         5           Au  tau(   5) = (  0.333221371   0.000000000   0.000000000 )
         6           Au  tau(   6) = (  0.666442743   0.000000000   0.000000000 )
         7           Au  tau(   7) = (  0.166610686   0.166610686   0.000000000 )
         8           Au  tau(   8) = (  0.499832076   0.166610686   0.000000000 )
         9           Au  tau(   9) = (  0.833053372   0.166610686   0.000000000 )
        10           Au  tau(  10) = (  0.000000000   0.333221371   0.000000000 )
        11           Au  tau(  11) = (  0.333221371   0.333221371   0.000000000 )
        12           Au  tau(  12) = (  0.666442743   0.333221371   0.000000000 )
        13           Au  tau(  13) = (  0.166610686   0.499832076   0.000000000 )
        14           Au  tau(  14) = (  0.499832076   0.499832076   0.000000000 )
        15           Au  tau(  15) = (  0.833053372   0.499832076   0.000000000 )
        16           Au  tau(  16) = (  0.000000000   0.666442743   0.000000000 )
        17           Au  tau(  17) = (  0.333221371   0.666442743   0.000000000 )
        18           Au  tau(  18) = (  0.666442743   0.666442743   0.000000000 )
        19           Au  tau(  19) = (  0.166610686   0.833053372   0.000000000 )
        20           Au  tau(  20) = (  0.499832076   0.833053372   0.000000000 )
        21           Au  tau(  21) = (  0.833053372   0.833053372   0.000000000 )
        22           Au  tau(  22) = (  0.166610686   0.000000000   0.166610686 )
        23           Au  tau(  23) = (  0.499832076   0.000000000   0.166610686 )
        24           Au  tau(  24) = (  0.833053372   0.000000000   0.166610686 )
        25           Au  tau(  25) = (  0.000000000   0.166610686   0.166610686 )
        26           Au  tau(  26) = (  0.333221371   0.166610686   0.166610686 )
        27           Au  tau(  27) = (  0.666442743   0.166610686   0.166610686 )
        28           Au  tau(  28) = (  0.166610686   0.333221371   0.166610686 )
        29           Au  tau(  29) = (  0.499832076   0.333221371   0.166610686 )
        30           Au  tau(  30) = (  0.833053372   0.333221371   0.166610686 )
        31           Au  tau(  31) = (  0.000000000   0.499832076   0.166610686 )
        32           Au  tau(  32) = (  0.333221371   0.499832076   0.166610686 )
        33           Au  tau(  33) = (  0.666442743   0.499832076   0.166610686 )
        34           Au  tau(  34) = (  0.166610686   0.666442743   0.166610686 )
        35           Au  tau(  35) = (  0.499832076   0.666442743   0.166610686 )
        36           Au  tau(  36) = (  0.833053372   0.666442743   0.166610686 )
        37           Au  tau(  37) = (  0.000000000   0.833053372   0.166610686 )
        38           Au  tau(  38) = (  0.333221371   0.833053372   0.166610686 )
        39           Au  tau(  39) = (  0.666442743   0.833053372   0.166610686 )
        40           Au  tau(  40) = (  -0.000018166   -0.000018166   0.333547431 )
        41           Au  tau(  41) = (  0.333221110   -0.000018053   0.333546908 )
        42           Au  tau(  42) = (  0.666444013   -0.000018291   0.333547767 )
        43           Au  tau(  43) = (  -0.000018053   0.333221110   0.333546908 )
        44           Au  tau(  44) = (  0.333221147   0.333221147   0.333546460 )
        45           Au  tau(  45) = (  0.666443789   0.333221185   0.333547393 )
        46           Au  tau(  46) = (  -0.000018291   0.666444013   0.333547767 )
        47           Au  tau(  47) = (  0.333221185   0.666443789   0.333547393 )
        48           Au  tau(  48) = (  0.666443938   0.666443938   0.333548215 )
        49           Au  tau(  49) = (  0.166609528   0.166609528   0.333547954 )
        50           Au  tau(  50) = (  0.499831515   0.166609602   0.333547356 )
        51           Au  tau(  51) = (  0.833072348   0.166609378   0.333547692 )
        52           Au  tau(  52) = (  0.166609602   0.499831515   0.333547356 )
        53           Au  tau(  53) = (  0.499831627   0.499831627   0.333546684 )
        54           Au  tau(  54) = (  0.833072199   0.499831665   0.333547057 )
        55           Au  tau(  55) = (  0.166609378   0.833072348   0.333547692 )
        56           Au  tau(  56) = (  0.499831665   0.833072199   0.333547057 )
        57           Au  tau(  57) = (  0.833072273   0.833072273   0.333547468 )
        58           Au  tau(  58) = (  0.166610219   -0.000011094   0.499309014 )
        59           Au  tau(  59) = (  0.499831814   -0.000011156   0.499309350 )
        60           Au  tau(  60) = (  0.833065176   -0.000011143   0.499300422 )
        61           Au  tau(  61) = (  -0.000011094   0.166610219   0.499309014 )
        62           Au  tau(  62) = (  0.333220998   0.166610424   0.499317978 )
        63           Au  tau(  63) = (  0.666443042   0.166610424   0.499318203 )
        64           Au  tau(  64) = (  0.166610424   0.333220998   0.499317978 )
        65           Au  tau(  65) = (  0.499831889   0.333221222   0.499318016 )
        66           Au  tau(  66) = (  0.833064952   0.333221110   0.499309723 )
        67           Au  tau(  67) = (  -0.000011156   0.499831814   0.499309350 )
        68           Au  tau(  68) = (  0.333221222   0.499831889   0.499318016 )
        69           Au  tau(  69) = (  0.666442967   0.499831964   0.499318203 )
        70           Au  tau(  70) = (  0.166610424   0.666443042   0.499318203 )
        71           Au  tau(  71) = (  0.499831964   0.666442967   0.499318203 )
        72           Au  tau(  72) = (  0.833064952   0.666443116   0.499309686 )
        73           Au  tau(  73) = (  -0.000011143   0.833065176   0.499300422 )
        74           Au  tau(  74) = (  0.333221110   0.833064952   0.499309723 )
        75           Au  tau(  75) = (  0.666443116   0.833064952   0.499309686 )

     number of k points=     6  Marzari-Vanderbilt smearing, width (Ry)=  0.0200
                       cart. coord. in units 2pi/alat
        k(    1) = (   0.2500000   0.2500000   0.0833333), wk =   0.3333333
        k(    2) = (   0.2500000   0.2500000  -0.2500000), wk =   0.3333333
        k(    3) = (  -0.2500000  -0.2500000   0.0833333), wk =   0.3333333
        k(    4) = (  -0.2500000   0.2500000  -0.0833333), wk =   0.3333333
        k(    5) = (   0.2500000  -0.2500000  -0.0833333), wk =   0.3333333
        k(    6) = (  -0.2500000   0.2500000   0.2500000), wk =   0.3333333

     Largest allocated arrays     est. size (Mb)     dimensions
     Largest temporary arrays     est. size (Mb)     dimensions

     Initial potential from superposition of free atoms
     Check: negative starting charge=   -1.945094

     starting charge  799.16392, renormalised to  800.00000

     negative rho (up, down):  1.947E+00 0.000E+00

     %%%%%%%%%%%%%%%%%%%%%%%%%%%%%%%%%%%%%%%%%%%%%%%%%%%%%%%%%%%%%%%%%%%%%%%%
     %                                                                      %
     % You are using vdW-DF, which was implemented by the Thonhauser group. %
     % Please cite the following two papers that made this development      %
     % possible and the two reviews that describe the various versions:     %
     %                                                                      %
     %   T. Thonhauser et al., PRL 115, 136402 (2015).                      %
     %   T. Thonhauser et al., PRB 76, 125112 (2007).                       %
     %   K. Berland et al., Rep. Prog. Phys. 78, 066501 (2015).             %
     %   D.C. Langreth et al., J. Phys.: Condens. Matter 21, 084203 (2009). %
     %                                                                      %
     %                                                                      %
     % If you are calculating the stress with vdW-DF, please also cite:     %
     %                                                                      %
     %   R. Sabatini et al., J. Phys.: Condens. Matter 24, 424209 (2012).   %
     %                                                                      %
     %%%%%%%%%%%%%%%%%%%%%%%%%%%%%%%%%%%%%%%%%%%%%%%%%%%%%%%%%%%%%%%%%%%%%%%%

     the Fermi energy is     0.9637 ev

!    total energy              =   -7425.29512616 Ry
     Harris-Foulkes estimate   =   -7425.29512616 Ry
     estimated scf accuracy    <          7.6E-11 Ry

     The total energy is the sum of the following terms:

     one-electron contribution =  -48708.08768056 Ry
     hartree contribution      =   24907.66105052 Ry
     xc contribution           =   -3604.20709861 Ry
     ewald contribution        =   19979.34148865 Ry
     smearing contrib. (-TS)   =      -0.00288615 Ry

     convergence has been achieved in  16 iterations

     negative rho (up, down):  1.974E+00 0.000E+00

     Forces acting on atoms (Ry/au):

     atom    1 type  3   force =     0.00003021    0.00002953   -0.00068657
     atom    2 type  2   force =     0.00016085    0.00009281    0.00029237
     atom    3 type  2   force =    -0.00006028   -0.00005261    0.00034440
     atom    4 type  1   force =    -0.00025328   -0.00025226    0.00207793
     atom    5 type  1   force =    -0.00000318   -0.00026670    0.00184757
     atom    6 type  1   force =    -0.00000766   -0.00031686    0.00198377
     atom    7 type  1   force =    -0.00000537   -0.00000659    0.00159741
     atom    8 type  1   force =     0.00000884   -0.00002099    0.00168625
     atom    9 type  1   force =     0.00026219    0.00001111    0.00190875
     atom   10 type  1   force =    -0.00026712   -0.00000426    0.00185130
     atom   11 type  1   force =    -0.00001492   -0.00001294    0.00163525
     atom   12 type  1   force =     0.00001249    0.00004414    0.00177196
     atom   13 type  1   force =    -0.00002297    0.00000880    0.00169500
     atom   14 type  1   force =     0.00003334    0.00003157    0.00168457
     atom   15 type  1   force =     0.00025980    0.00000606    0.00185615
     atom   16 type  1   force =    -0.00031544   -0.00000673    0.00197753
     atom   17 type  1   force =     0.00004222    0.00001305    0.00176807
     atom   18 type  1   force =     0.00000219    0.00000284    0.00161296
     atom   19 type  1   force =     0.00000971    0.00025996    0.00191367
     atom   20 type  1   force =     0.00000717    0.00026372    0.00185703
     atom   21 type  1   force =     0.00022946    0.00023164    0.00210765
     atom   22 type  1   force =    -0.00001940   -0.00033544   -0.00120096
     atom   23 type  1   force =    -0.00011441   -0.00042538   -0.00109345
     atom   24 type  1   force =     0.00056306   -0.00041525   -0.00110208
     atom   25 type  1   force =    -0.00034019   -0.00001900   -0.00119203
     atom   26 type  1   force =    -0.00009219   -0.00004731   -0.00118874
     atom   27 type  1   force =     0.00001878   -0.00003617   -0.00113782
     atom   28 type  1   force =    -0.00004655   -0.00009566   -0.00119575
     atom   29 type  1   force =    -0.00014573   -0.00001887   -0.00107796
     atom   30 type  1   force =     0.00054917    0.00000147   -0.00108946
     atom   31 type  1   force =    -0.00042716   -0.00010095   -0.00110654
     atom   32 type  1   force =    -0.00002065   -0.00013759   -0.00108691
     atom   33 type  1   force =     0.00004648    0.00005254   -0.00106858
     atom   34 type  1   force =    -0.00003845    0.00002295   -0.00112787
     atom   35 type  1   force =     0.00005082    0.00004836   -0.00107260
     atom   36 type  1   force =     0.00037836    0.00001751   -0.00107683
     atom   37 type  1   force =    -0.00041343    0.00055496   -0.00111054
     atom   38 type  1   force =    -0.00000224    0.00054133   -0.00110319
     atom   39 type  1   force =     0.00001770    0.00037717   -0.00107408
     atom   40 type  1   force =    -0.00017296   -0.00019619    0.00019101
     atom   41 type  1   force =    -0.00017263   -0.00023516    0.00019111
     atom   42 type  1   force =     0.00002174   -0.00041398   -0.00005572
     atom   43 type  1   force =    -0.00021496   -0.00014548    0.00018468
     atom   44 type  1   force =    -0.00022981   -0.00020608    0.00022926
     atom   45 type  1   force =     0.00005568    0.00002223   -0.00005026
     atom   46 type  1   force =    -0.00041117    0.00001964   -0.00005347
     atom   47 type  1   force =     0.00002054    0.00005576   -0.00004764
     atom   48 type  1   force =     0.00003824    0.00003735   -0.00011781
     atom   49 type  1   force =    -0.00002768   -0.00003076    0.00048968
     atom   50 type  1   force =    -0.00004980   -0.00008721    0.00005195
     atom   51 type  1   force =     0.00041295    0.00001576    0.00002263
     atom   52 type  1   force =    -0.00008845   -0.00007665    0.00009562
     atom   53 type  1   force =     0.00007383    0.00007273   -0.00009089
     atom   54 type  1   force =     0.00034381    0.00003727   -0.00009475
     atom   55 type  1   force =     0.00001552    0.00044771    0.00007301
     atom   56 type  1   force =     0.00003691    0.00034632   -0.00009410
     atom   57 type  1   force =     0.00031201    0.00031653   -0.00010306
     atom   58 type  1   force =    -0.00011917   -0.00124533   -0.00154366
     atom   59 type  1   force =    -0.00000797   -0.00022198   -0.00060690
     atom   60 type  1   force =     0.00034494   -0.00020950   -0.00063762
     atom   61 type  1   force =    -0.00133289   -0.00011597   -0.00165847
     atom   62 type  1   force =     0.00109473    0.00006226   -0.00146475
     atom   63 type  1   force =     0.00001168   -0.00001598   -0.00039517
     atom   64 type  1   force =     0.00005649    0.00099587   -0.00132148
     atom   65 type  1   force =    -0.00009768   -0.00002980   -0.00026007
     atom   66 type  1   force =     0.00025094   -0.00002588   -0.00059625
     atom   67 type  1   force =    -0.00023413    0.00000381   -0.00062716
     atom   68 type  1   force =    -0.00001630   -0.00008458   -0.00028766
     atom   69 type  1   force =    -0.00001453   -0.00005024   -0.00050041
     atom   70 type  1   force =    -0.00001471    0.00001465   -0.00041518
     atom   71 type  1   force =    -0.00004950   -0.00001638   -0.00050330
     atom   72 type  1   force =     0.00029189    0.00004027   -0.00070181
     atom   73 type  1   force =    -0.00022400    0.00033667   -0.00066314
     atom   74 type  1   force =    -0.00001475    0.00024336   -0.00061689
     atom   75 type  1   force =     0.00003895    0.00029900   -0.00069900

     Total force =     0.000847     Total SCF correction =     0.000000

     bfgs converged in  13 scf cycles and  12 bfgs steps
     (criteria: energy <  1.0E-04, force <  1.0E-03)

     End of BFGS Geometry Optimization

     Final energy   =   -7425.2951261584 Ry
Begin final coordinates

ATOMIC_POSITIONS (angstrom)
O        2.138197897   2.131498755   9.407029647
H        1.531773453   1.628259285   9.981373394
H        2.718487156   2.617668239  10.021566725
Au       0.000000000   0.000000000   0.000000000    0   0   0
Au       4.253737926   0.000000000   0.000000000    0   0   0
Au       8.507475853   0.000000000   0.000000000    0   0   0
Au       2.126868963   2.126868963   0.000000000    0   0   0
Au       6.380607128   2.126868963   0.000000000    0   0   0
Au      10.634344101   2.126868963   0.000000000    0   0   0
Au       0.000000000   4.253737926   0.000000000    0   0   0
Au       4.253737926   4.253737926   0.000000000    0   0   0
Au       8.507475853   4.253737926   0.000000000    0   0   0
Au       2.126868963   6.380607128   0.000000000    0   0   0
Au       6.380607128   6.380607128   0.000000000    0   0   0
Au      10.634344101   6.380607128   0.000000000    0   0   0
Au       0.000000000   8.507475853   0.000000000    0   0   0
Au       4.253737926   8.507475853   0.000000000    0   0   0
Au       8.507475853   8.507475853   0.000000000    0   0   0
Au       2.126868963  10.634344101   0.000000000    0   0   0
Au       6.380607128  10.634344101   0.000000000    0   0   0
Au      10.634344101  10.634344101   0.000000000    0   0   0
Au       2.126868963   0.000000000   2.126868963    0   0   0
Au       6.380607128   0.000000000   2.126868963    0   0   0
Au      10.634344101   0.000000000   2.126868963    0   0   0
Au       0.000000000   2.126868963   2.126868963    0   0   0
Au       4.253737926   2.126868963   2.126868963    0   0   0
Au       8.507475853   2.126868963   2.126868963    0   0   0
Au       2.126868963   4.253737926   2.126868963    0   0   0
Au       6.380607128   4.253737926   2.126868963    0   0   0
Au      10.634344101   4.253737926   2.126868963    0   0   0
Au       0.000000000   6.380607128   2.126868963    0   0   0
Au       4.253737926   6.380607128   2.126868963    0   0   0
Au       8.507475853   6.380607128   2.126868963    0   0   0
Au       2.126868963   8.507475853   2.126868963    0   0   0
Au       6.380607128   8.507475853   2.126868963    0   0   0
Au      10.634344101   8.507475853   2.126868963    0   0   0
Au       0.000000000  10.634344101   2.126868963    0   0   0
Au       4.253737926  10.634344101   2.126868963    0   0   0
Au       8.507475853  10.634344101   2.126868963    0   0   0
Au      -0.000231899  -0.000231899   4.257900238    0   0   0
Au       4.253734589  -0.000230451   4.257893562    0   0   0
Au       8.507492065  -0.000233495   4.257904530    0   0   0
Au      -0.000230451   4.253734589   4.257893562    0   0   0
Au       4.253735065   4.253735065   4.257887840    0   0   0
Au       8.507489204   4.253735542   4.257899761    0   0   0
Au      -0.000233495   8.507492065   4.257904530    0   0   0
Au       4.253735542   8.507489204   4.257899761    0   0   0
Au       8.507491112   8.507491112   4.257910252    0   0   0
Au       2.126854181   2.126854181   4.257906914    0   0   0
Au       6.380599976   2.126855135   4.257899284    0   0   0
Au      10.634586334   2.126852274   4.257903576    0   0   0
Au       2.126855135   6.380599976   4.257899284    0   0   0
Au       6.380601406   6.380601406   4.257890701    0   0   0
Au      10.634584427   6.380601883   4.257895470    0   0   0
Au       2.126852274  10.634586334   4.257903576    0   0   0
Au       6.380601883  10.634584427   4.257895470    0   0   0
Au      10.634585381  10.634585381   4.257900715    0   0   0
Au       2.126863003  -0.000141616   6.373929977    0   0   0
Au       6.380603790  -0.000142418   6.373934269    0   0   0
Au      10.634494781  -0.000142245   6.373820305    0   0   0
Au      -0.000141616   2.126863003   6.373929977    0   0   0
Au       4.253733158   2.126865625   6.374044418    0   0   0
Au       8.507479668   2.126865625   6.374047279    0   0   0
Au       2.126865625   4.253733158   6.374044418    0   0   0
Au       6.380604744   4.253736019   6.374044895    0   0   0
Au      10.634491920   4.253734589   6.373939037    0   0   0
Au      -0.000142418   6.380603790   6.373934269    0   0   0
Au       4.253736019   6.380604744   6.374044895    0   0   0
Au       8.507478714   6.380605698   6.374047279    0   0   0
Au       2.126865625   8.507479668   6.374047279    0   0   0
Au       6.380605698   8.507478714   6.374047279    0   0   0
Au      10.634491920   8.507480621   6.373938560    0   0   0
Au      -0.000142245  10.634494781   6.373820305    0   0   0
Au       4.253734589  10.634491920   6.373939037    0   0   0
Au       8.507480621  10.634491920   6.373938560    0   0   0
End final coordinates

     Writing output data file 4343714.save

     General routines

     Parallel routines

   This run was terminated on:   3:55:51   1Sep2016

   JOB DONE.