     Program PWSCF v.5.3.0 (svn rev. 11974) starts on 21Jul2016 at 17:43:49

     Current dimensions of program PWSCF are:
     Max number of different atomic species (ntypx) = 10
     Max number of k-points (npk) =  40000
     Max angular momentum in pseudopotentials (lmaxx) =  3

     IMPORTANT: XC functional enforced from input :
     Exchange-correlation      = VDW-DF ( 1  4  4  0 1 0)
     Any further DFT definition will be discarded
     Please, verify this is what you really want

     Title:
     top.O1.Au62.d.3.0.phi.0.psi.90.relax

     bravais-lattice index     =            8
     lattice parameter (alat)  =      24.1233  a.u.
     unit-cell volume          =   28076.2361 (a.u.)^3
     number of atoms/cell      =           75
     number of atomic types    =            3
     number of electrons       =       800.00
     number of Kohn-Sham states=          480
     kinetic-energy cutoff     =      50.0000  Ry
     charge density cutoff     =     400.0000  Ry
     convergence threshold     =      1.0E-08
     mixing beta               =       0.7000
     number of iterations used =            8  plain     mixing
     Exchange-correlation      = VDW-DF ( 1  4  4  0 1 0)
     nstep                     =           50

     celldm(1)=  24.123277  celldm(2)=   1.000000  celldm(3)=   2.000000
     celldm(4)=   0.000000  celldm(5)=   0.000000  celldm(6)=   0.000000

     crystal axes: (cart. coord. in units of alat)
               a(1) = (   1.000000   0.000000   0.000000 )
               a(2) = (   0.000000   1.000000   0.000000 )
               a(3) = (   0.000000   0.000000   2.000000 )

     reciprocal axes: (cart. coord. in units 2 pi/alat)
               b(1) = (  1.000000  0.000000  0.000000 )
               b(2) = (  0.000000  1.000000  0.000000 )
               b(3) = (  0.000000  0.000000  0.500000 )

     PseudoPot. # 1 for Au read from file:
     ../../../pseudo/Au.pbe-nd-van.UPF
     MD5 check sum: 458681b50f36d87ef23c61b04bba420a
     Pseudo is Ultrasoft + core correction, Zval = 11.0
     Generated by new atomic code, or converted to UPF format
     Using radial grid of  985 points,  3 beta functions with:
                l(1) =   1
                l(2) =   2
                l(3) =   2
     Q(r) pseudized with  8 coefficients,  rinner =    1.100   1.100   1.100
                                                       1.100   1.100

     PseudoPot. # 2 for H  read from file:
     ../../../pseudo/H.pbe-van_ak.UPF
     MD5 check sum: 403db7282739603aa925980fa9b8608d
     Pseudo is Ultrasoft, Zval =  1.0
     Generated by new atomic code, or converted to UPF format
     Using radial grid of  615 points,  1 beta functions with:
                l(1) =   0
     Q(r) pseudized with  8 coefficients,  rinner =    0.800

     PseudoPot. # 3 for O  read from file:
     ../../../pseudo/O.pbe-van_ak.UPF
     MD5 check sum: 4b8c549914a63cae506c6ff22b5af4fe
     Pseudo is Ultrasoft, Zval =  6.0
     Generated by new atomic code, or converted to UPF format
     Using radial grid of  737 points,  4 beta functions with:
                l(1) =   0
                l(2) =   0
                l(3) =   1
                l(4) =   1
     Q(r) pseudized with  8 coefficients,  rinner =    0.800   0.800   0.800

     vdW kernel table read from file vdW_kernel_table
     MD5 check sum: 48e77a2e26edf626eeb0eaa751ad5cac

     atomic species   valence    mass     pseudopotential
        Au            11.00   196.96657     Au( 1.00)
        H              1.00     1.01000     H ( 1.00)
        O              6.00    16.00000     O ( 1.00)

     No symmetry found

   Cartesian axes

     site n.     atom                  positions (alat units)
         1           O   tau(   1) = ( 0.489252875   0.326164833   0.729008565 )
         2           H   tau(   2) = ( 0.431597833   0.277269575   0.740646385 )
         3           H   tau(   3) = ( 0.551437603   0.289273281   0.753935594 )
         4           Au  tau(   4) = ( 0.000075081   -0.000271607   0.000653920 )
         5           Au  tau(   5) = ( 0.333212648   -0.000008629   0.001266277 )
         6           Au  tau(   6) = ( 0.666539074   -0.000083466   0.000960641 )
         7           Au  tau(   7) = ( 0.166776847   0.166632743   0.001143841 )
         8           Au  tau(   8) = ( 0.499830752   0.166503683   0.000819814 )
         9           Au  tau(   9) = ( 0.833316050   0.166520171   0.000889583 )
        10           Au  tau(  10) = ( 0.000052573   0.333203339   0.001369455 )
        11           Au  tau(  11) = ( 0.333170912   0.333292026   0.000813714 )
        12           Au  tau(  12) = ( 0.666733705   0.333296102   0.000553311 )
        13           Au  tau(  13) = ( 0.166772987   0.499857851   0.001054623 )
        14           Au  tau(  14) = ( 0.499829584   0.500078105   0.000532980 )
        15           Au  tau(  15) = ( 0.833348809   0.499958752   0.000918150 )
        16           Au  tau(  16) = ( 0.000106994   0.666722609   0.000690927 )
        17           Au  tau(  17) = ( 0.333208843   0.666455184   0.000974074 )
        18           Au  tau(  18) = ( 0.666528234   0.666570073   0.000793235 )
        19           Au  tau(  19) = ( 0.166493421   0.833236663   0.000759913 )
        20           Au  tau(  20) = ( 0.499703565   0.833174165   0.001342064 )
        21           Au  tau(  21) = ( 0.833459857   0.833271596   0.000560491 )
        22           Au  tau(  22) = ( 0.166596836   -0.000183169   0.166377955 )
        23           Au  tau(  23) = ( 0.499950406   0.000463913   0.166537999 )
        24           Au  tau(  24) = ( 0.833622838   -0.000337869   0.166071721 )
        25           Au  tau(  25) = ( 0.000117909   0.166390087   0.165935457 )
        26           Au  tau(  26) = ( 0.333612682   0.166950921   0.166701835 )
        27           Au  tau(  27) = ( 0.666678091   0.166805422   0.166243583 )
        28           Au  tau(  28) = ( 0.167401292   0.333390008   0.166745303 )
        29           Au  tau(  29) = ( 0.500139352   0.333570081   0.165846264 )
        30           Au  tau(  30) = ( 0.832913597   0.333360875   0.166412797 )
        31           Au  tau(  31) = ( 0.000187426   0.500113270   0.165963201 )
        32           Au  tau(  32) = ( 0.333646848   0.499865249   0.166668911 )
        33           Au  tau(  33) = ( 0.666589040   0.499961228   0.166251629 )
        34           Au  tau(  34) = ( 0.166634833   0.666701947   0.166331233 )
        35           Au  tau(  35) = ( 0.499921202   0.666011983   0.166614166 )
        36           Au  tau(  36) = ( 0.833613498   0.666895498   0.165951436 )
        37           Au  tau(  37) = ( 0.000146384   0.833350654   0.166535589 )
        38           Au  tau(  38) = ( 0.333113197   0.833181364   0.166118191 )
        39           Au  tau(  39) = ( 0.666793875   0.833238592   0.165824619 )
        40           Au  tau(  40) = ( 0.000303700   -0.000173941   0.333024750 )
        41           Au  tau(  41) = ( 0.333579462   -0.000098449   0.332510449 )
        42           Au  tau(  42) = ( 0.666814771   -0.000229161   0.332346378 )
        43           Au  tau(  43) = ( 0.000387747   0.333219719   0.332598196 )
        44           Au  tau(  44) = ( 0.334489496   0.333520660   0.333969048 )
        45           Au  tau(  45) = ( 0.666871299   0.333477148   0.333493425 )
        46           Au  tau(  46) = ( 0.000273306   0.666927858   0.332945309 )
        47           Au  tau(  47) = ( 0.333446906   0.667099773   0.332779247 )
        48           Au  tau(  48) = ( 0.666924307   0.667210873   0.332489070 )
        49           Au  tau(  49) = ( 0.166699803   0.166709405   0.332595702 )
        50           Au  tau(  50) = ( 0.500501691   0.167304053   0.333625123 )
        51           Au  tau(  51) = ( 0.834080050   0.166519968   0.332291485 )
        52           Au  tau(  52) = ( 0.166657212   0.499853988   0.332765910 )
        53           Au  tau(  53) = ( 0.500473169   0.499720749   0.333913966 )
        54           Au  tau(  54) = ( 0.834130204   0.500021451   0.332307617 )
        55           Au  tau(  55) = ( 0.166649559   0.833588053   0.333149852 )
        56           Au  tau(  56) = ( 0.499954341   0.833707230   0.332577743 )
        57           Au  tau(  57) = ( 0.833758210   0.833548960   0.332850349 )
        58           Au  tau(  58) = ( 0.166791883   0.000105889   0.498871197 )
        59           Au  tau(  59) = ( 0.500275101   0.000435779   0.498189830 )
        60           Au  tau(  60) = ( 0.833827524   -0.000265188   0.498568644 )
        61           Au  tau(  61) = ( 0.000423364   0.166493572   0.498376363 )
        62           Au  tau(  62) = ( 0.332870029   0.165797978   0.498060765 )
        63           Au  tau(  63) = ( 0.668598304   0.165587408   0.498024585 )
        64           Au  tau(  64) = ( 0.167232704   0.333123533   0.498162047 )
        65           Au  tau(  65) = ( 0.501622153   0.333705381   0.498272161 )
        66           Au  tau(  66) = ( 0.834099195   0.333128283   0.497912218 )
        67           Au  tau(  67) = ( 0.000348869   0.499879577   0.498030974 )
        68           Au  tau(  68) = ( 0.332725942   0.501227893   0.497689137 )
        69           Au  tau(  69) = ( 0.668787531   0.501401985   0.497623438 )
        70           Au  tau(  70) = ( 0.166479520   0.667010347   0.498481467 )
        71           Au  tau(  71) = ( 0.500277362   0.667359915   0.497597078 )
        72           Au  tau(  72) = ( 0.834039430   0.667264081   0.498209640 )
        73           Au  tau(  73) = ( 0.000300549   0.833584185   0.498821604 )
        74           Au  tau(  74) = ( 0.333334155   0.833850111   0.498287926 )
        75           Au  tau(  75) = ( 0.666835044   0.833769132   0.498043424 )

     number of k points=     6  Marzari-Vanderbilt smearing, width (Ry)=  0.0200
                       cart. coord. in units 2pi/alat
        k(    1) = (   0.2500000   0.2500000   0.0833333), wk =   0.3333333
        k(    2) = (   0.2500000   0.2500000  -0.2500000), wk =   0.3333333
        k(    3) = (  -0.2500000  -0.2500000   0.0833333), wk =   0.3333333
        k(    4) = (  -0.2500000   0.2500000  -0.0833333), wk =   0.3333333
        k(    5) = (   0.2500000  -0.2500000  -0.0833333), wk =   0.3333333
        k(    6) = (  -0.2500000   0.2500000   0.2500000), wk =   0.3333333

     Largest allocated arrays     est. size (Mb)     dimensions
     Largest temporary arrays     est. size (Mb)     dimensions

     Initial potential from superposition of free atoms
     Check: negative starting charge=   -1.945168

     starting charge  799.16392, renormalised to  800.00000

     negative rho (up, down):  1.947E+00 0.000E+00

#### DEL> SECTION ##################################

     the Fermi energy is     0.9341 ev

!    total energy              =   -7425.29925340 Ry
     Harris-Foulkes estimate   =   -7425.29925340 Ry
     estimated scf accuracy    <          6.8E-11 Ry

     The total energy is the sum of the following terms:

     one-electron contribution =  -48924.16596649 Ry
     hartree contribution      =   25014.47972132 Ry
     xc contribution           =   -3604.31526136 Ry
     ewald contribution        =   20088.70454781 Ry
     smearing contrib. (-TS)   =      -0.00229468 Ry

     convergence has been achieved in  17 iterations

     negative rho (up, down):  1.972E+00 0.000E+00

     Forces acting on atoms (Ry/au):

     atom    1 type  3   force =    -0.00008487   -0.00016890   -0.00048948
     atom    2 type  2   force =     0.00030922    0.00022685   -0.00036764
     atom    3 type  2   force =    -0.00022027    0.00009275   -0.00077528
     atom    4 type  1   force =     0.00003394   -0.00002031    0.00010940
     atom    5 type  1   force =     0.00006896    0.00005958    0.00013582
     atom    6 type  1   force =    -0.00004066    0.00006993    0.00032689
     atom    7 type  1   force =     0.00003604    0.00006293    0.00025416
     atom    8 type  1   force =     0.00011523    0.00009545    0.00026523
     atom    9 type  1   force =    -0.00002941    0.00008990    0.00029640
     atom   10 type  1   force =     0.00001308    0.00001795    0.00038184
     atom   11 type  1   force =     0.00009414   -0.00000920    0.00016520
     atom   12 type  1   force =    -0.00004394   -0.00000434    0.00033385
     atom   13 type  1   force =     0.00002787   -0.00003705    0.00023211
     atom   14 type  1   force =     0.00012473   -0.00004333    0.00023195
     atom   15 type  1   force =    -0.00003803   -0.00005510    0.00027110
     atom   16 type  1   force =     0.00002286    0.00010884    0.00016731
     atom   17 type  1   force =     0.00008183    0.00001274    0.00020435
     atom   18 type  1   force =    -0.00004682   -0.00002535    0.00037345
     atom   19 type  1   force =    -0.00003489    0.00000289    0.00012826
     atom   20 type  1   force =     0.00015104    0.00000554    0.00037669
     atom   21 type  1   force =     0.00009907   -0.00000256    0.00014472
     atom   22 type  1   force =     0.00017510    0.00027121   -0.00024670
     atom   23 type  1   force =     0.00025748    0.00011384   -0.00037008
     atom   24 type  1   force =    -0.00029071    0.00037681   -0.00009526
     atom   25 type  1   force =     0.00002691    0.00014533   -0.00005268
     atom   26 type  1   force =     0.00002553    0.00015069   -0.00016469
     atom   27 type  1   force =    -0.00008864    0.00010030   -0.00000410
     atom   28 type  1   force =     0.00001463   -0.00007540   -0.00030257
     atom   29 type  1   force =     0.00013114   -0.00014468    0.00018787
     atom   30 type  1   force =    -0.00010318   -0.00009857   -0.00032735
     atom   31 type  1   force =     0.00003125    0.00001775   -0.00003491
     atom   32 type  1   force =     0.00000377    0.00000539   -0.00018997
     atom   33 type  1   force =    -0.00006491    0.00005258   -0.00004772
     atom   34 type  1   force =     0.00023712   -0.00014450   -0.00001353
     atom   35 type  1   force =     0.00022707   -0.00000224   -0.00025854
     atom   36 type  1   force =    -0.00032399   -0.00024913    0.00014383
     atom   37 type  1   force =     0.00000927   -0.00016568   -0.00050100
     atom   38 type  1   force =     0.00004662   -0.00015173   -0.00011535
     atom   39 type  1   force =    -0.00007324   -0.00012414    0.00003968
     atom   40 type  1   force =    -0.00004000    0.00051361    0.00012606
     atom   41 type  1   force =    -0.00019655    0.00006226    0.00010836
     atom   42 type  1   force =     0.00017245    0.00013408   -0.00002957
     atom   43 type  1   force =     0.00001404   -0.00007632    0.00006774
     atom   44 type  1   force =    -0.00009065   -0.00019714   -0.00004935
     atom   45 type  1   force =    -0.00019660   -0.00017382   -0.00008593
     atom   46 type  1   force =    -0.00003630   -0.00035944   -0.00006360
     atom   47 type  1   force =    -0.00021418    0.00003127   -0.00005119
     atom   48 type  1   force =     0.00021787   -0.00002206   -0.00018328
     atom   49 type  1   force =    -0.00003335   -0.00007611   -0.00005679
     atom   50 type  1   force =     0.00006029    0.00007970   -0.00008796
     atom   51 type  1   force =    -0.00009625   -0.00011193    0.00000376
     atom   52 type  1   force =     0.00000208    0.00027574   -0.00006532
     atom   53 type  1   force =     0.00008611   -0.00002606   -0.00005324
     atom   54 type  1   force =    -0.00010977    0.00033465   -0.00000618
     atom   55 type  1   force =     0.00040796   -0.00020242    0.00004702
     atom   56 type  1   force =     0.00026093   -0.00015854    0.00006503
     atom   57 type  1   force =    -0.00045176   -0.00019760    0.00001746
     atom   58 type  1   force =    -0.00013142   -0.00014515   -0.00027052
     atom   59 type  1   force =     0.00002917   -0.00002058    0.00020123
     atom   60 type  1   force =     0.00013313    0.00000244   -0.00018982
     atom   61 type  1   force =    -0.00001445   -0.00001183   -0.00007332
     atom   62 type  1   force =    -0.00019413   -0.00012203   -0.00023647
     atom   63 type  1   force =    -0.00005550   -0.00002720   -0.00020780
     atom   64 type  1   force =    -0.00006435   -0.00005374    0.00017970
     atom   65 type  1   force =    -0.00023572   -0.00017306    0.00035036
     atom   66 type  1   force =    -0.00007319   -0.00003006    0.00028263
     atom   67 type  1   force =     0.00002705    0.00010879    0.00011454
     atom   68 type  1   force =    -0.00013744    0.00004811   -0.00005629
     atom   69 type  1   force =    -0.00012668   -0.00004285   -0.00001931
     atom   70 type  1   force =    -0.00003498    0.00016721   -0.00021391
     atom   71 type  1   force =     0.00005761   -0.00003586    0.00025504
     atom   72 type  1   force =     0.00007978    0.00006433   -0.00012468
     atom   73 type  1   force =    -0.00001071   -0.00003561   -0.00014699
     atom   74 type  1   force =    -0.00000654   -0.00005720    0.00001285
     atom   75 type  1   force =     0.00012172   -0.00002263    0.00002646

     Total force =     0.002634     Total SCF correction =     0.000045

     bfgs converged in  34 scf cycles and  33 bfgs steps
     (criteria: energy <  1.0E-04, force <  1.0E-03)

     End of BFGS Geometry Optimization

     Final energy   =   -7425.2992533992 Ry
Begin final coordinates

ATOMIC_POSITIONS (angstrom)
O        6.245558325   4.163657677   9.306159959
H        5.509562796   3.539485180   9.454722556
H        7.039377564   3.692718510   9.624365977
Au       0.000958442  -0.003467197   0.008347614
Au       4.253626566  -0.000110153   0.016164661
Au       8.508705567  -0.001065486   0.012263064
Au       2.128990093   2.127150533   0.014601698
Au       6.380590236   2.125503018   0.010465334
Au      10.637697306   2.125713495   0.011355970
Au       0.000671117   4.253507740   0.017481777
Au       4.253093782   4.254639867   0.010387471
Au       8.511190126   4.254691898   0.007063290
Au       2.128940818   6.380936163   0.013462790
Au       6.380575320   6.383747819   0.006803751
Au      10.638115493   6.382224216   0.011720644
Au       0.001365838   8.511048488   0.008820026
Au       4.253578001   8.507634673   0.012434543
Au       8.508567194   8.509101287   0.010126042
Au       2.125372025  10.636683895   0.009700666
Au       6.378966630  10.635886081   0.017132125
Au      10.639533078  10.637129834   0.007154946
Au       2.126692159  -0.002338242   2.123898045
Au       6.382117670   0.005922083   2.125941081
Au      10.641613609  -0.004313067   2.119988813
Au       0.001505165   2.124052916   2.118249335
Au       4.258733207   2.131212232   2.128032524
Au       8.510480191   2.129354871   2.122182714
Au       2.136961446   4.255890661   2.128587417
Au       6.384529659   4.258189376   2.117110733
Au      10.632559800   4.255518755   2.124342811
Au       0.002392593   6.384196719   2.118603497
Au       4.259169349   6.381030596   2.127612233
Au       8.509343405   6.382255819   2.122285423
Au       2.127177212   8.510784725   2.123301608
Au       6.381744871   8.501976989   2.126913388
Au      10.641494386   8.513255502   2.118453314
Au       0.001868660  10.638139048   2.125910321
Au       4.252357026  10.635977983   2.120582027
Au       8.511958230  10.636708522   2.116834427
Au       0.003876887  -0.002220441   4.251227950
Au       4.258309135  -0.001256746   4.244662645
Au       8.512224980  -0.002925349   4.242568194
Au       0.004949779   4.253716837   4.245782778
Au       4.269926171   4.257558501   4.263282394
Au       8.512946594   4.257003037   4.257210832
Au       0.003488887   8.513668598   4.250213848
Au       4.256616986   8.515863169   4.248093988
Au       8.513623262   8.517281420   4.244389734
Au       2.128006594   2.128129164   4.245750943
Au       6.389155103   2.135720142   4.258892024
Au      10.647450156   2.125710909   4.241867456
Au       2.127462901   6.380886850   4.247923732
Au       6.388790999   6.379185990   4.262579240
Au      10.648090394   6.383024596   4.242073399
Au       2.127365201  10.641169565   4.252824943
Au       6.382167911  10.642690923   4.245521688
Au      10.643341709  10.640670521   4.249001640
Au       2.129182038   0.001351730   6.368341024
Au       6.386262566   0.005562932   6.359643040
Au      10.644226540  -0.003385256   6.364478782
Au       0.005404455   2.125373946   6.362024221
Au       4.249252862   2.116494340   6.357995462
Au       8.534992669   2.113806311   6.357533597
Au       2.134809340   4.252488967   6.359288369
Au       6.403458356   4.259916546   6.360694040
Au      10.647694549   4.252549613   6.356099185
Au       0.004453483   6.381213504   6.357615164
Au       4.247413516   6.398425433   6.353251436
Au       8.537408245   6.400647811   6.352412756
Au       2.125194568   8.514721612   6.363365927
Au       6.386291430   8.519184017   6.352076257
Au      10.646931620   8.517960647   6.359895924
Au       0.003836662  10.641120191   6.367707949
Au       4.255177665  10.644514871   6.360895277
Au       8.512483769  10.643481127   6.357774093
End final coordinates

     Writing output data file 6510999.save

     General routines

     Parallel routines

   This run was terminated on:   4:44:14  23Jul2016

   JOB DONE.