     Program PWSCF v.5.3.0 (svn rev. 11974) starts on  8Nov2016 at 14:15: 0

     Current dimensions of program PWSCF are:
     Max number of different atomic species (ntypx) = 10
     Max number of k-points (npk) =  40000
     Max angular momentum in pseudopotentials (lmaxx) =  3

     IMPORTANT: XC functional enforced from input :
     Exchange-correlation      = VDW-DF ( 1  4  4  0 1 0)
     Any further DFT definition will be discarded
     Please, verify this is what you really want

     Subspace diagonalization in iterative solution of the eigenvalue problem:
     a serial algorithm will be used

     Title:
     top.O1.Au50.d.3.0.phi.0.psi.90

     bravais-lattice index     =            4
     lattice parameter (alat)  =      22.7436  a.u.
     unit-cell volume          =   22924.1508 (a.u.)^3
     number of atoms/cell      =           67
     number of atomic types    =            3
     number of electrons       =       712.00
     number of Kohn-Sham states=          427
     kinetic-energy cutoff     =      50.0000  Ry
     charge density cutoff     =     400.0000  Ry
     convergence threshold     =      1.0E-08
     mixing beta               =       0.7000
     number of iterations used =            8  plain     mixing
     Exchange-correlation      = VDW-DF ( 1  4  4  0 1 0)
     nstep                     =           50

     celldm(1)=  22.743643  celldm(2)=   0.000000  celldm(3)=   2.250000
     celldm(4)=   0.000000  celldm(5)=   0.000000  celldm(6)=   0.000000

     crystal axes: (cart. coord. in units of alat)
               a(1) = (   1.000000   0.000000   0.000000 )
               a(2) = (  -0.500000   0.866025   0.000000 )
               a(3) = (   0.000000   0.000000   2.250000 )

     reciprocal axes: (cart. coord. in units 2 pi/alat)
               b(1) = (  1.000000  0.577350  0.000000 )
               b(2) = (  0.000000  1.154701  0.000000 )
               b(3) = (  0.000000  0.000000  0.444444 )

     PseudoPot. # 1 for Au read from file:
     ../../../../pseudo/Au.pbe-nd-van.UPF
     MD5 check sum: 458681b50f36d87ef23c61b04bba420a
     Pseudo is Ultrasoft + core correction, Zval = 11.0
     Generated by new atomic code, or converted to UPF format
     Using radial grid of  985 points,  3 beta functions with:
                l(1) =   1
                l(2) =   2
                l(3) =   2
     Q(r) pseudized with  8 coefficients,  rinner =    1.100   1.100   1.100
                                                       1.100   1.100

     PseudoPot. # 2 for H  read from file:
     ../../../../pseudo/H.pbe-van_ak.UPF
     MD5 check sum: 403db7282739603aa925980fa9b8608d
     Pseudo is Ultrasoft, Zval =  1.0
     Generated by new atomic code, or converted to UPF format
     Using radial grid of  615 points,  1 beta functions with:
                l(1) =   0
     Q(r) pseudized with  8 coefficients,  rinner =    0.800

     PseudoPot. # 3 for O  read from file:
     ../../../../pseudo/O.pbe-van_ak.UPF
     MD5 check sum: 4b8c549914a63cae506c6ff22b5af4fe
     Pseudo is Ultrasoft, Zval =  6.0
     Generated by new atomic code, or converted to UPF format
     Using radial grid of  737 points,  4 beta functions with:
                l(1) =   0
                l(2) =   0
                l(3) =   1
                l(4) =   1
     Q(r) pseudized with  8 coefficients,  rinner =    0.800   0.800   0.800

     vdW kernel table read from file vdW_kernel_table
     MD5 check sum: 48e77a2e26edf626eeb0eaa751ad5cac

     atomic species   valence    mass     pseudopotential
        Au            11.00   196.96657     Au( 1.00)
        H              1.00     1.01000     H ( 1.00)
        O              6.00    16.00000     O ( 1.00)

     No symmetry found

   Cartesian axes

     site n.     atom                  positions (alat units)
         1           O   tau(   1) = (   0.4790780   0.3968269   0.8622611  )
         2           H   tau(   2) = (   0.4291446   0.3485733   0.8207135  )
         3           H   tau(   3) = (   0.5274974   0.3460662   0.9025680  )
         4           Au  tau(   4) = (   0.3540481   0.6132292   0.0000000  )
         5           Au  tau(   5) = (   0.4790062   0.3967954   0.0000000  )
         6           Au  tau(   6) = (   0.6039644   0.1803616   0.0000000  )
         7           Au  tau(   7) = (   0.7289225  -0.0360723   0.0000000  )
         8           Au  tau(   8) = (   0.1041318   0.6132292   0.0000000  )
         9           Au  tau(   9) = (   0.2290899   0.3967954   0.0000000  )
        10           Au  tau(  10) = (   0.3540481   0.1803616   0.0000000  )
        11           Au  tau(  11) = (   0.4790062  -0.0360723   0.0000000  )
        12           Au  tau(  12) = (  -0.1457845   0.6132292   0.0000000  )
        13           Au  tau(  13) = (  -0.0208264   0.3967954   0.0000000  )
        14           Au  tau(  14) = (   0.1041318   0.1803616   0.0000000  )
        15           Au  tau(  15) = (   0.2290899  -0.0360723   0.0000000  )
        16           Au  tau(  16) = (  -0.3957008   0.6132292   0.0000000  )
        17           Au  tau(  17) = (  -0.2707426   0.3967954   0.0000000  )
        18           Au  tau(  18) = (  -0.1457845   0.1803616   0.0000000  )
        19           Au  tau(  19) = (  -0.0208264  -0.0360723   0.0000000  )
        20           Au  tau(  20) = (   0.4790062   0.6853738   0.2040557  )
        21           Au  tau(  21) = (   0.6039644   0.4689400   0.2040557  )
        22           Au  tau(  22) = (   0.7289225   0.2525062   0.2040557  )
        23           Au  tau(  23) = (   0.8538806   0.0360723   0.2040557  )
        24           Au  tau(  24) = (   0.2290899   0.6853738   0.2040557  )
        25           Au  tau(  25) = (   0.3540481   0.4689400   0.2040557  )
        26           Au  tau(  26) = (   0.4790062   0.2525062   0.2040557  )
        27           Au  tau(  27) = (   0.6039644   0.0360723   0.2040557  )
        28           Au  tau(  28) = (  -0.0208264   0.6853738   0.2040557  )
        29           Au  tau(  29) = (   0.1041318   0.4689400   0.2040557  )
        30           Au  tau(  30) = (   0.2290899   0.2525062   0.2040557  )
        31           Au  tau(  31) = (   0.3540481   0.0360723   0.2040557  )
        32           Au  tau(  32) = (  -0.2707426   0.6853738   0.2040557  )
        33           Au  tau(  33) = (  -0.1457845   0.4689400   0.2040557  )
        34           Au  tau(  34) = (  -0.0208264   0.2525062   0.2040557  )
        35           Au  tau(  35) = (   0.1041318   0.0360723   0.2040557  )
        36           Au  tau(  36) = (   0.3541162   0.7576593   0.4066483  )
        37           Au  tau(  37) = (   0.4791000   0.5411421   0.4066696  )
        38           Au  tau(  38) = (   0.6040570   0.3246862   0.4066618  )
        39           Au  tau(  39) = (   0.7290270   0.1081684   0.4066530  )
        40           Au  tau(  40) = (   0.1041162   0.7576236   0.4066247  )
        41           Au  tau(  41) = (   0.2291001   0.5411062   0.4066455  )
        42           Au  tau(  42) = (   0.3540567   0.3246505   0.4066380  )
        43           Au  tau(  43) = (   0.4790276   0.1081324   0.4066292  )
        44           Au  tau(  44) = (  -0.1458201   0.7576104   0.4066225  )
        45           Au  tau(  45) = (  -0.0208365   0.5410930   0.4066438  )
        46           Au  tau(  46) = (   0.1041202   0.3246372   0.4066359  )
        47           Au  tau(  47) = (   0.2290908   0.1081193   0.4066273  )
        48           Au  tau(  48) = (  -0.3958167   0.7575791   0.4065812  )
        49           Au  tau(  49) = (  -0.2708328   0.5410617   0.4066025  )
        50           Au  tau(  50) = (  -0.1458763   0.3246061   0.4065947  )
        51           Au  tau(  51) = (  -0.0209056   0.1080882   0.4065858  )
        52           Au  tau(  52) = (   0.3541084   0.6133344   0.6129762  )
        53           Au  tau(  53) = (   0.4790780   0.3968269   0.6129968  )
        54           Au  tau(  54) = (   0.6040356   0.1803811   0.6129859  )
        55           Au  tau(  55) = (   0.7290165  -0.0361221   0.6129385  )
        56           Au  tau(  56) = (   0.1041243   0.6133091   0.6130023  )
        57           Au  tau(  57) = (   0.2290941   0.3968013   0.6130241  )
        58           Au  tau(  58) = (   0.3540515   0.1803552   0.6130121  )
        59           Au  tau(  59) = (   0.4790323  -0.0361475   0.6129659  )
        60           Au  tau(  60) = (  -0.1458030   0.6133014   0.6129980  )
        61           Au  tau(  61) = (  -0.0208339   0.3967936   0.6130189  )
        62           Au  tau(  62) = (   0.1041239   0.1803477   0.6130083  )
        63           Au  tau(  63) = (   0.2291046  -0.0361554   0.6129607  )
        64           Au  tau(  64) = (  -0.3957908   0.6132739   0.6129471  )
        65           Au  tau(  65) = (  -0.2708208   0.3967658   0.6129688  )
        66           Au  tau(  66) = (  -0.1458636   0.1803200   0.6129569  )
        67           Au  tau(  67) = (  -0.0208823  -0.0361826   0.6129110  )

     number of k points=    12  Marzari-Vanderbilt smearing, width (Ry)=  0.0200
                       cart. coord. in units 2pi/alat
        k(    1) = (   0.2500000   0.4330127   0.1111111), wk =   0.1666667
        k(    2) = (   0.2500000  -0.1443376   0.1111111), wk =   0.1666667
        k(    3) = (  -0.2500000  -0.4330127   0.1111111), wk =   0.1666667
        k(    4) = (  -0.2500000   0.4330127  -0.1111111), wk =   0.1666667
        k(    5) = (   0.2500000  -0.4330127  -0.1111111), wk =   0.1666667
        k(    6) = (   0.5000000   0.0000000   0.1111111), wk =   0.1666667
        k(    7) = (  -0.5000000   0.0000000   0.1111111), wk =   0.1666667
        k(    8) = (  -0.2500000   0.1443376   0.1111111), wk =   0.1666667
        k(    9) = (  -0.2500000  -0.1443376  -0.1111111), wk =   0.1666667
        k(   10) = (   0.2500000   0.1443376  -0.1111111), wk =   0.1666667
        k(   11) = (   0.0000000  -0.2886751   0.1111111), wk =   0.1666667
        k(   12) = (   0.0000000   0.2886751   0.1111111), wk =   0.1666667

     Largest allocated arrays     est. size (Mb)     dimensions
     Largest temporary arrays     est. size (Mb)     dimensions

     Initial potential from superposition of free atoms
     Check: negative starting charge=   -1.730289

     starting charge  711.25682, renormalised to  712.00000

     negative rho (up, down):  1.732E+00 0.000E+00

     %%%%%%%%%%%%%%%%%%%%%%%%%%%%%%%%%%%%%%%%%%%%%%%%%%%%%%%%%%%%%%%%%%%%%%%%
     %                                                                      %
     % You are using vdW-DF, which was implemented by the Thonhauser group. %
     % Please cite the following two papers that made this development      %
     % possible and the two reviews that describe the various versions:     %
     %                                                                      %
     %   T. Thonhauser et al., PRL 115, 136402 (2015).                      %
     %   T. Thonhauser et al., PRB 76, 125112 (2007).                       %
     %   K. Berland et al., Rep. Prog. Phys. 78, 066501 (2015).             %
[...]
Au      -0.250775832   6.512280371   4.894127734    0   0   0
Au       1.253129886   3.907144806   4.894032314    0   0   0
Au       2.757203248   1.301260700   4.893929884    0   0   0
Au      -4.763818999   9.117780756   4.893374701    0   0   0
Au      -3.259585414   6.511903063   4.893631474    0   0   0
Au      -1.755681715   3.906769930   4.893536782    0   0   0
Au      -0.251607469   1.300886748   4.893429919    0   0   0
Au       4.261843034   7.381735769   7.377424444    0   0   0
Au       5.765903940   4.775977024   7.377672754    0   0   0
Au       7.269820773   2.170961653   7.377541712    0   0   0
Au       8.774018470  -0.434744481   7.376971426    0   0   0
Au       1.253179795   7.381430866   7.377738213    0   0   0
Au       2.757243204   4.775669411   7.378001384    0   0   0
Au       4.261157347   2.170650070   7.377856520    0   0   0
Au       5.765354042  -0.435050225   7.377300462    0   0   0
Au      -1.754800224   7.381337914   7.377687123    0   0   0
Au      -0.250744359   4.775576254   7.377937998    0   0   0
Au       1.253174615   2.170560080   7.377811054    0   0   0
Au       2.757369880  -0.435145449   7.377237928    0   0   0
Au      -4.763507679   7.381007356   7.377074050    0   0   0
Au      -3.259441573   4.775242495   7.377336099    0   0   0
Au      -1.755528945   2.170226057   7.377192528    0   0   0
Au      -0.251327688  -0.435472367   7.376640090    0   0   0

     Writing output data file 30433193.save
     Check: negative starting charge=   -1.730257
     NEW-OLD atomic charge density approx. for the potential
     Check: negative starting charge=   -1.730257

[...]

     Self-consistent Calculation

[...]

     Threshold (ethr) on eigenvalues was too large:
     Diagonalizing with lowered threshold

     Davidson diagonalization with overlap
     ethr =  2.04E-09,  avg # of iterations =  2.1

[...]

     total energy              =   -6604.43793374 Ry
     Harris-Foulkes estimate   =   -6604.43793374 Ry
     estimated scf accuracy    <          2.4E-10 Ry

     iteration # 12     ecut=    50.00 Ry     beta=0.70
     Davidson diagonalization with overlap
     ethr =  1.00E-13,  avg # of iterations =  2.0

[...]

     End of self-consistent calculation

[...]

          k =-0.2500-0.1443-0.1111 (136898 PWs)   bands (ev):

[...]

          k = 0.0000 0.2887 0.1111 (136898 PWs)   bands (ev):

   -19.2060  -7.0110  -6.4742  -5.6821  -5.3921  -5.3320  -5.3315  -4.7934
    -4.7930  -4.6628  -4.6612  -4.5071  -4.4773  -4.4137  -4.3811  -4.3810
    -4.3465  -4.3464  -4.2178  -4.1762  -4.1758  -4.1165  -4.0959  -4.0958
    -3.9927  -3.9925  -3.9566  -3.9563  -3.9563  -3.9299  -3.9079  -3.9076
    -3.8048  -3.8008  -3.8005  -3.7804  -3.7634  -3.7632  -3.7511  -3.7510
    -3.7382  -3.7076  -3.7074  -3.7067  -3.7064  -3.6749  -3.6746  -3.6565
    -3.6564  -3.6441  -3.6011  -3.6001  -3.5703  -3.5551  -3.5541  -3.5479
    -3.5478  -3.4740  -3.4735  -3.4426  -3.4385  -3.4362  -3.3698  -3.3681
    -3.3615  -3.3527  -3.3304  -3.3219  -3.3214  -3.3211  -3.3021  -3.1671
    -3.1642  -3.1418  -3.1404  -3.1369  -3.1202  -3.1189  -3.0945  -3.0932
    -3.0443  -3.0434  -3.0281  -3.0268  -3.0072  -2.9595  -2.9593  -2.9401
    -2.9348  -2.9335  -2.8937  -2.8930  -2.8863  -2.8858  -2.8707  -2.8700
    -2.8306  -2.8299  -2.8090  -2.8085  -2.8055  -2.8047  -2.8014  -2.7257
    -2.7252  -2.7234  -2.6947  -2.6937  -2.6335  -2.6330  -2.6042  -2.6029
    -2.5902  -2.5894  -2.5839  -2.5550  -2.5547  -2.5447  -2.5273  -2.5035
    -2.5022  -2.5018  -2.4811  -2.4809  -2.4706  -2.4702  -2.4667  -2.4655
    -2.4569  -2.4109  -2.3795  -2.3793  -2.3643  -2.3502  -2.3436  -2.3432
    -2.3360  -2.3354  -2.3334  -2.3050  -2.3040  -2.3036  -2.2938  -2.2934
    -2.2770  -2.2501  -2.2497  -2.2486  -2.2475  -2.2470  -2.2015  -2.1723
    -2.1703  -2.1700  -2.1635  -2.1538  -2.1423  -2.1416  -2.1241  -2.1239
    -2.0928  -2.0898  -2.0896  -2.0710  -2.0705  -2.0704  -2.0379  -2.0373
    -1.9966  -1.9933  -1.9878  -1.9860  -1.9854  -1.9812  -1.9791  -1.9781
    -1.9765  -1.9703  -1.9698  -1.9531  -1.9520  -1.8292  -1.8262  -1.7993
    -1.7909  -1.7875  -1.7802  -1.7800  -1.7726  -1.7638  -1.7622  -1.7603
    -1.7586  -1.7396  -1.7344  -1.7287  -1.7268  -1.7154  -1.7148  -1.6935
    -1.6921  -1.6639  -1.6631  -1.6356  -1.6320  -1.6203  -1.6135  -1.5958
    -1.5946  -1.5908  -1.5733  -1.5639  -1.5602  -1.5547  -1.5531  -1.5315
    -1.5263  -1.5144  -1.5102  -1.5087  -1.4781  -1.4689  -1.4385  -1.4170
    -1.4161  -1.4039  -1.4030  -1.3798  -1.3769  -1.3695  -1.3418  -1.3410
    -1.3306  -1.3011  -1.2976  -1.2836  -1.2804  -1.2785  -1.2541  -1.2535
    -1.2296  -1.2222  -1.2202  -1.2198  -1.1575  -1.1571  -1.1452  -1.1418
    -1.1279  -1.1262  -1.1152  -1.1105  -1.0961  -1.0838  -1.0565  -1.0552
    -1.0427  -1.0117  -1.0069  -1.0007  -0.9939  -0.9937  -0.9920  -0.9881
    -0.9814  -0.9723  -0.9436  -0.9426  -0.9338  -0.9312  -0.9300  -0.9106
    -0.9066  -0.8895  -0.8773  -0.8670  -0.8478  -0.7711  -0.7598  -0.7544
    -0.7541  -0.7492  -0.7459  -0.7389  -0.7196  -0.7150  -0.7050  -0.7001
    -0.6895  -0.6843  -0.6804  -0.6605  -0.6583  -0.6499  -0.6492  -0.5762
    -0.5759  -0.5444  -0.5389  -0.5380  -0.5326  -0.5295  -0.5292  -0.5256
    -0.5181  -0.5106  -0.4899  -0.4741  -0.4586  -0.4414  -0.4390  -0.4302
    -0.4265  -0.4175  -0.4159  -0.4145  -0.4139  -0.4060  -0.3963  -0.3924
    -0.3850  -0.3611  -0.3599  -0.3541  -0.3466  -0.3439  -0.3274  -0.2958
    -0.2933  -0.2865  -0.2826  -0.2180  -0.2155  -0.1813  -0.1807  -0.1229
    -0.1221  -0.1218  -0.1002  -0.0944   0.1261   0.1500   0.4786   0.4787
     0.5645   0.5831   0.7608   0.7925   0.7982   0.9250   0.9291   1.3588
     1.3590   1.3765   1.6369   1.6687   1.6690   1.9368   1.9575   2.0233
     2.0250   2.0473   2.0625   2.2804   2.2806   2.3697   2.3706   2.4354
     2.5007   2.5237   2.6736   2.7732   3.2078   3.2115   3.2131   3.2226
     3.2683   3.2710   3.5622   3.5634   3.8376   3.8515   3.9354   4.2590
     4.2966   4.3057   4.4965   4.5105   4.6001   4.6053   4.6938   4.8080
     4.8175   4.9275   4.9320   5.1072   5.2321   5.2936   5.3103   5.4351
     5.4851   5.6872   5.6926   5.7147   5.7177   5.7618   5.7721   5.7828
     5.8559   6.0504   6.2081   6.2659   6.3845   6.5000   6.5215   6.5221
     6.5306   6.5428   6.6296   6.7552   6.7777   6.7893   6.8368   6.9679
     7.0037   7.0259   7.0516

     the Fermi energy is     1.5029 ev

!    total energy              =   -6604.43793374 Ry
     Harris-Foulkes estimate   =   -6604.43793374 Ry
     estimated scf accuracy    <          6.1E-11 Ry

     The total energy is the sum of the following terms:

     one-electron contribution =  -48667.05282249 Ry
     hartree contribution      =   24836.30230540 Ry
     xc contribution           =   -3204.96180710 Ry
     ewald contribution        =   20431.27154007 Ry
     smearing contrib. (-TS)   =       0.00285039 Ry

     convergence has been achieved in  12 iterations

     negative rho (up, down):  1.757E+00 0.000E+00

     Forces acting on atoms (Ry/au):

     atom    1 type  3   force =     0.00035574    0.00076507   -0.00004688
     atom    2 type  2   force =    -0.00029380   -0.00039725   -0.00021662
     atom    3 type  2   force =     0.00004312   -0.00012895   -0.00060788
     atom    4 type  1   force =     0.00010326    0.00029805   -0.00244661
     atom    5 type  1   force =     0.00020043    0.00006354   -0.00265768
     atom    6 type  1   force =     0.00015609    0.00003791   -0.00256242
     atom    7 type  1   force =     0.00020576   -0.00016479   -0.00239192
     atom    8 type  1   force =    -0.00011473    0.00027781   -0.00263350
     atom    9 type  1   force =    -0.00002594    0.00002585   -0.00260039
     atom   10 type  1   force =     0.00002932   -0.00004516   -0.00261385
     atom   11 type  1   force =     0.00001503   -0.00033226   -0.00256676
     atom   12 type  1   force =     0.00004750    0.00026637   -0.00260991
     atom   13 type  1   force =    -0.00001494   -0.00004881   -0.00263964
     atom   14 type  1   force =    -0.00021693   -0.00009737   -0.00270120
     atom   15 type  1   force =     0.00001836   -0.00025913   -0.00244275
     atom   16 type  1   force =    -0.00016201    0.00015523   -0.00231864
     atom   17 type  1   force =    -0.00018184   -0.00003127   -0.00241893
     atom   18 type  1   force =    -0.00000635   -0.00014002   -0.00253920
     atom   19 type  1   force =    -0.00018078   -0.00007536   -0.00234861
     atom   20 type  1   force =     0.00022914    0.00017125    0.00264670
     atom   21 type  1   force =     0.00022061    0.00008050    0.00242620
     atom   22 type  1   force =     0.00007597    0.00017258    0.00275483
     atom   23 type  1   force =     0.00037053   -0.00018707    0.00243767
     atom   24 type  1   force =    -0.00005688    0.00039655    0.00255069
     atom   25 type  1   force =     0.00006155    0.00002945    0.00254229
     atom   26 type  1   force =     0.00002623    0.00002438    0.00254824
     atom   27 type  1   force =     0.00007865   -0.00035461    0.00263277
     atom   28 type  1   force =    -0.00001673    0.00031648    0.00251961
     atom   29 type  1   force =    -0.00006042    0.00002739    0.00265077
     atom   30 type  1   force =     0.00018447    0.00009728    0.00284559
     atom   31 type  1   force =     0.00002057   -0.00037349    0.00261194
     atom   32 type  1   force =    -0.00020878    0.00027789    0.00252745
     atom   33 type  1   force =    -0.00015607   -0.00008823    0.00265034
     atom   34 type  1   force =    -0.00025169   -0.00019879    0.00252610
     atom   35 type  1   force =    -0.00030781   -0.00037336    0.00252886
     atom   36 type  1   force =    -0.00003560    0.00011414   -0.00019967
     atom   37 type  1   force =    -0.00000597   -0.00048861    0.00117703
     atom   38 type  1   force =    -0.00043197    0.00020767    0.00082623
     atom   39 type  1   force =     0.00014231   -0.00009774   -0.00033988
     atom   40 type  1   force =     0.00001840    0.00006937   -0.00011959
     atom   41 type  1   force =     0.00001788    0.00011143    0.00008643
     atom   42 type  1   force =     0.00045140    0.00024411    0.00081416
     atom   43 type  1   force =     0.00006683   -0.00003958   -0.00014550
     atom   44 type  1   force =    -0.00008893    0.00001769   -0.00012851
     atom   45 type  1   force =    -0.00005414   -0.00000496   -0.00002368
     atom   46 type  1   force =    -0.00019769   -0.00013016   -0.00029599
     atom   47 type  1   force =    -0.00016780   -0.00012166   -0.00034844
     atom   48 type  1   force =    -0.00002443    0.00015253   -0.00022244
     atom   49 type  1   force =     0.00003020    0.00010572   -0.00002632
     atom   50 type  1   force =     0.00013376   -0.00007949   -0.00031734
     atom   51 type  1   force =     0.00000452    0.00003886   -0.00004501
     atom   52 type  1   force =    -0.00042855    0.00053497   -0.00037630
     atom   53 type  1   force =     0.00025266    0.00015160   -0.00079903
     atom   54 type  1   force =     0.00034874   -0.00074539   -0.00018545
     atom   55 type  1   force =     0.00008112   -0.00003279    0.00019789
     atom   56 type  1   force =     0.00007851    0.00000988    0.00011986
     atom   57 type  1   force =    -0.00075232    0.00011063   -0.00027694
     atom   58 type  1   force =    -0.00034911   -0.00080513   -0.00020566
     atom   59 type  1   force =     0.00005389    0.00009725    0.00024423
     atom   60 type  1   force =    -0.00012104   -0.00002819    0.00010570
     atom   61 type  1   force =    -0.00005424   -0.00001834    0.00020108
     atom   62 type  1   force =     0.00005836   -0.00000664    0.00022651
     atom   63 type  1   force =    -0.00003863   -0.00005696    0.00020317
     atom   64 type  1   force =     0.00036482    0.00047802   -0.00030302
     atom   65 type  1   force =     0.00054975    0.00012120   -0.00011512
     atom   66 type  1   force =    -0.00010061    0.00001716    0.00018459
     atom   67 type  1   force =     0.00001126   -0.00011427    0.00005034

     Total force =     0.001180     Total SCF correction =     0.000002

     bfgs converged in  36 scf cycles and  33 bfgs steps
     (criteria: energy <  1.0E-04, force <  1.0E-03)

     End of BFGS Geometry Optimization

     Final energy   =   -6604.4379337389 Ry
Begin final coordinates

ATOMIC_POSITIONS (angstrom)
O        5.635691341   4.677047365  10.407280702
H        4.895557879   4.061408817  10.566682505
H        6.426130436   4.204527143  10.730737583
Au       4.261117000   7.380470000   0.000000000    0   0   0
Au       5.765040000   4.775598000   0.000000000    0   0   0
Au       7.268964000   2.170727000   0.000000000    0   0   0
Au       8.772887000  -0.434145000   0.000000000    0   0   0
Au       1.253270000   7.380470000   0.000000000    0   0   0
Au       2.757193000   4.775598000   0.000000000    0   0   0
Au       4.261117000   2.170727000   0.000000000    0   0   0
Au       5.765040000  -0.434145000   0.000000000    0   0   0
Au      -1.754577000   7.380470000   0.000000000    0   0   0
Au      -0.250654000   4.775598000   0.000000000    0   0   0
Au       1.253270000   2.170727000   0.000000000    0   0   0
Au       2.757193000  -0.434145000   0.000000000    0   0   0
Au      -4.762424000   7.380470000   0.000000000    0   0   0
Au      -3.258500000   4.775598000   0.000000000    0   0   0
Au      -1.754577000   2.170727000   0.000000000    0   0   0
Au      -0.250654000  -0.434145000   0.000000000    0   0   0
Au       5.765040000   8.248760000   2.455896000    0   0   0
Au       7.268964000   5.643889000   2.455896000    0   0   0
Au       8.772887000   3.039017000   2.455896000    0   0   0
Au      10.276810000   0.434145000   2.455896000    0   0   0
Au       2.757193000   8.248760000   2.455896000    0   0   0
Au       4.261117000   5.643889000   2.455896000    0   0   0
Au       5.765040000   3.039017000   2.455896000    0   0   0
Au       7.268964000   0.434145000   2.455896000    0   0   0
Au      -0.250654000   8.248760000   2.455896000    0   0   0
Au       1.253270000   5.643889000   2.455896000    0   0   0
Au       2.757193000   3.039017000   2.455896000    0   0   0
Au       4.261117000   0.434145000   2.455896000    0   0   0
Au      -3.258500000   8.248760000   2.455896000    0   0   0
Au      -1.754577000   5.643889000   2.455896000    0   0   0
Au      -0.250654000   3.039017000   2.455896000    0   0   0
Au       1.253270000   0.434145000   2.455896000    0   0   0
Au       4.261936086   9.118745949   4.894181796    0   0   0
Au       5.766168858   6.512870680   4.894437955    0   0   0
Au       7.270077990   3.907733622   4.894344067    0   0   0
Au       8.774144024   1.301851563   4.894238208    0   0   0
Au       1.253081841   9.118316194   4.893897745    0   0   0
Au       2.757315175   6.512439707   4.894148627    0   0   0
Au       4.261219778   3.907303886   4.894058403    0   0   0
Au       5.765297248   1.301418763   4.893952753    0   0   0
Au      -1.755005563   9.118157099   4.893871056    0   0   0
Au      -0.250775832   6.512280371   4.894127734    0   0   0
Au       1.253129886   3.907144806   4.894032314    0   0   0
Au       2.757203248   1.301260700   4.893929884    0   0   0
Au      -4.763818999   9.117780756   4.893374701    0   0   0
Au      -3.259585414   6.511903063   4.893631474    0   0   0
Au      -1.755681715   3.906769930   4.893536782    0   0   0
Au      -0.251607469   1.300886748   4.893429919    0   0   0
Au       4.261843034   7.381735769   7.377424444    0   0   0
Au       5.765903940   4.775977024   7.377672754    0   0   0
Au       7.269820773   2.170961653   7.377541712    0   0   0
Au       8.774018470  -0.434744481   7.376971426    0   0   0
Au       1.253179795   7.381430866   7.377738213    0   0   0
Au       2.757243204   4.775669411   7.378001384    0   0   0
Au       4.261157347   2.170650070   7.377856520    0   0   0
Au       5.765354042  -0.435050225   7.377300462    0   0   0
Au      -1.754800224   7.381337914   7.377687123    0   0   0
Au      -0.250744359   4.775576254   7.377937998    0   0   0
Au       1.253174615   2.170560080   7.377811054    0   0   0
Au       2.757369880  -0.435145449   7.377237928    0   0   0
Au      -4.763507679   7.381007356   7.377074050    0   0   0
Au      -3.259441573   4.775242495   7.377336099    0   0   0
Au      -1.755528945   2.170226057   7.377192528    0   0   0
Au      -0.251327688  -0.435472367   7.376640090    0   0   0
End final coordinates

     Writing output data file 30433193.save

     General routines

     Parallel routines

   This run was terminated on:  13:53:17   9Nov2016

   JOB DONE.